*HEADING
cubit(T/STEPS4ModelRelease/caBurst/mesh/cone_1_0.2_3701tets.inp): 10/10/2024: 13
version: 2022.4
**
********************************** P A R T S **********************************
*PART, NAME=Part-Default
**
********************************** N O D E S **********************************
*NODE, NSET=ALLNODES
       1,    2.000000e-01,    0.000000e+00,    5.000000e+00
       2,   -1.999842e-01,    2.513296e-03,    5.000000e+00
       3,    1.000000e+00,    0.000000e+00,   -5.000000e+00
       4,   -9.999210e-01,    1.256604e-02,   -5.000000e+00
       5,    1.734141e-01,    9.963701e-02,    5.000000e+00
       6,    1.007247e-01,    1.727847e-01,    5.000000e+00
       7,    1.256672e-03,    1.999961e-01,    5.000000e+00
       8,   -9.854542e-02,    1.740368e-01,    5.000000e+00
       9,   -1.721484e-01,    1.018083e-01,    5.000000e+00
      10,   -1.742428e-01,   -9.818067e-02,    5.000000e+00
      11,   -1.014476e-01,   -1.723612e-01,    5.000000e+00
      12,   -1.256739e-03,   -1.999961e-01,    5.000000e+00
      13,    9.927350e-02,   -1.736225e-01,    5.000000e+00
      14,    1.729952e-01,   -1.003626e-01,    5.000000e+00
      15,    8.649763e-01,   -5.018127e-01,   -5.000000e+00
      16,    4.963680e-01,   -8.681122e-01,   -5.000000e+00
      17,   -6.283107e-03,   -9.999803e-01,   -5.000000e+00
      18,   -5.072375e-01,   -8.618063e-01,   -5.000000e+00
      19,   -8.712138e-01,   -4.909038e-01,   -5.000000e+00
      20,   -8.607420e-01,    5.090414e-01,   -5.000000e+00
      21,   -4.927274e-01,    8.701837e-01,   -5.000000e+00
      22,    6.283105e-03,    9.999803e-01,   -5.000000e+00
      23,    5.036232e-01,    8.639234e-01,   -5.000000e+00
      24,    8.670707e-01,    4.981852e-01,   -5.000000e+00
      25,   -9.618777e-01,    1.208795e-02,   -4.524421e+00
      26,   -9.251334e-01,    1.162618e-02,   -4.065080e+00
      27,   -8.883890e-01,    1.116441e-02,   -3.605739e+00
      28,   -8.516446e-01,    1.070264e-02,   -3.146398e+00
      29,   -8.149002e-01,    1.024088e-02,   -2.687057e+00
      30,   -7.829317e-01,    9.839128e-03,   -2.287419e+00
      31,   -7.542442e-01,    9.478612e-03,   -1.928797e+00
      32,   -7.255568e-01,    9.118095e-03,   -1.570176e+00
      33,   -6.968693e-01,    8.757578e-03,   -1.211554e+00
      34,   -6.681818e-01,    8.397062e-03,   -8.529317e-01
      35,   -6.394943e-01,    8.036545e-03,   -4.943098e-01
      36,   -6.108068e-01,    7.676029e-03,   -1.356879e-01
      37,   -5.872997e-01,    7.380614e-03,    1.581742e-01
      38,   -5.669456e-01,    7.124823e-03,    4.126205e-01
      39,   -5.465915e-01,    6.869033e-03,    6.670668e-01
      40,   -5.262374e-01,    6.613242e-03,    9.215131e-01
      41,   -5.058833e-01,    6.357452e-03,    1.175959e+00
      42,   -4.855292e-01,    6.101661e-03,    1.430406e+00
      43,   -4.651751e-01,    5.845870e-03,    1.684852e+00
      44,   -4.448210e-01,    5.590080e-03,    1.939298e+00
      45,   -4.244669e-01,    5.334289e-03,    2.193745e+00
      46,   -4.041128e-01,    5.078499e-03,    2.448191e+00
      47,   -3.902270e-01,    4.903995e-03,    2.621778e+00
      48,   -3.779949e-01,    4.750274e-03,    2.774691e+00
      49,   -3.657628e-01,    4.596553e-03,    2.927604e+00
      50,   -3.535307e-01,    4.442832e-03,    3.080517e+00
      51,   -3.412986e-01,    4.289111e-03,    3.233430e+00
      52,   -3.290665e-01,    4.135390e-03,    3.386344e+00
      53,   -3.168344e-01,    3.981669e-03,    3.539257e+00
      54,   -3.046023e-01,    3.827948e-03,    3.692170e+00
      55,   -2.923703e-01,    3.674226e-03,    3.845083e+00
      56,   -2.801382e-01,    3.520505e-03,    3.997996e+00
      57,   -2.679061e-01,    3.366784e-03,    4.150909e+00
      58,   -2.556740e-01,    3.213063e-03,    4.303823e+00
      59,   -2.434419e-01,    3.059342e-03,    4.456736e+00
      60,   -2.312098e-01,    2.905621e-03,    4.609649e+00
      61,   -2.189777e-01,    2.751900e-03,    4.762562e+00
      62,   -2.084885e-01,    2.620082e-03,    4.893688e+00
      63,   -2.392135e-01,   -1.062947e-01,    4.227919e+00
      64,   -6.746628e-01,   -6.909610e-01,   -4.571383e+00
      65,    9.314963e-01,   -2.506395e-01,   -4.557840e+00
      66,   -7.237976e-01,   -3.382580e-01,   -2.486721e+00
      67,   -5.215955e-02,    2.005306e-01,    4.909960e+00
      68,    5.467535e-02,    1.998593e-01,    4.909960e+00
      69,   -8.423834e-01,    4.324045e-01,   -4.336011e+00
      70,   -8.014557e-01,    4.269485e-01,   -3.851048e+00
      71,    1.469743e-01,    1.460537e-01,    4.909960e+00
      72,   -7.787042e-01,    3.880528e-01,   -3.375468e+00
      73,    6.842325e-01,    6.799469e-01,   -4.557815e+00
      74,   -2.680985e-01,   -9.204408e-01,   -4.483635e+00
      75,    2.447818e-01,   -9.330528e-01,   -4.557840e+00
      76,   -1.441132e-01,   -1.492144e-01,    4.906934e+00
      77,   -5.510921e-02,   -1.998002e-01,    4.909237e+00
      78,    6.799482e-01,   -6.842339e-01,   -4.557840e+00
      79,    5.259407e-02,   -2.004769e-01,    4.909237e+00
      80,    1.460945e-01,   -1.470154e-01,    4.909237e+00
      81,   -8.593088e-01,   -3.986533e-01,   -4.340978e+00
      82,   -8.215018e-01,   -3.839196e-01,   -3.834815e+00
      83,   -7.882101e-01,   -3.683613e-01,   -3.375468e+00
      84,   -7.574668e-01,   -3.471978e-01,   -2.915601e+00
      85,    9.320173e-01,    2.486875e-01,   -4.557815e+00
      86,   -6.927163e-01,   -3.329774e-01,   -2.107369e+00
      87,   -6.841298e-01,    3.502803e-01,   -2.107369e+00
      88,   -6.365698e-01,    3.172223e-01,   -1.390401e+00
      89,   -6.183487e-01,   -2.889783e-01,   -1.031775e+00
      90,   -6.108914e-01,    3.044262e-01,   -1.031775e+00
      91,   -5.871482e-01,    2.876409e-01,   -6.727467e-01
      92,   -5.413843e-01,   -2.569609e-01,    9.111610e-03
      93,   -5.347558e-01,    2.704848e-01,    9.111610e-03
      94,   -5.013221e-01,   -2.422197e-01,    5.403591e-01
      95,   -4.950768e-01,    2.547415e-01,    5.403591e-01
      96,   -4.606627e-01,    2.326043e-01,    1.049287e+00
      97,   -4.490964e-01,   -2.098805e-01,    1.303512e+00
      98,   -4.436803e-01,    2.211000e-01,    1.303512e+00
      99,   -4.139366e-01,   -1.888547e-01,    1.812711e+00
     100,   -4.090600e-01,    1.991973e-01,    1.812711e+00
     101,   -3.761787e-01,    1.745591e-01,    2.316171e+00
     102,   -3.578089e-01,   -1.744983e-01,    2.523856e+00
     103,   -3.531367e-01,    1.834920e-01,    2.525458e+00
     104,   -3.394298e-01,    1.798185e-01,    2.698515e+00
     105,   -3.228017e-01,   -1.585825e-01,    3.004354e+00
     106,   -3.187146e-01,    1.666445e-01,    3.004354e+00
     107,   -3.017788e-01,   -1.458700e-01,    3.310196e+00
     108,   -2.980178e-01,    1.534076e-01,    3.310196e+00
     109,   -2.876753e-01,    1.467648e-01,    3.463119e+00
     110,   -2.773359e-01,    1.401055e-01,    3.616044e+00
     111,   -2.597659e-01,   -1.202480e-01,    3.921900e+00
     112,   -2.566621e-01,    1.267379e-01,    3.921900e+00
     113,    2.001425e-01,   -5.385277e-02,    4.909237e+00
     114,   -2.289038e-01,   -9.933894e-02,    4.380876e+00
     115,   -2.189169e-01,   -9.153414e-02,    4.533965e+00
     116,   -2.089449e-01,   -8.383715e-02,    4.685788e+00
     117,   -1.942466e-01,   -9.048852e-02,    4.821383e+00
     118,   -6.578424e-01,    7.077182e-01,   -4.578013e+00
     119,   -2.428266e-01,    9.335615e-01,   -4.557815e+00
     120,    2.545386e-01,    9.304364e-01,   -4.557815e+00
     121,   -7.485025e-01,    3.661234e-01,   -2.915601e+00
     122,   -7.150686e-01,    3.563403e-01,   -2.486721e+00
     123,   -6.680806e-01,   -3.179890e-01,   -1.748723e+00
     124,   -6.598786e-01,    3.346775e-01,   -1.748723e+00
     125,   -6.443405e-01,   -3.011251e-01,   -1.390401e+00
     126,   -5.941912e-01,   -2.727950e-01,   -6.727467e-01
     127,   -5.704523e-01,   -2.556031e-01,   -3.137383e-01
     128,   -5.638489e-01,    2.698579e-01,   -3.137383e-01
     129,   -5.188095e-01,   -2.528113e-01,    2.858983e-01
     130,   -5.122925e-01,    2.657692e-01,    2.858983e-01
     131,   -4.838402e-01,   -2.316008e-01,    7.948218e-01
     132,   -4.778672e-01,    2.436866e-01,    7.948218e-01
     133,   -4.663626e-01,   -2.209543e-01,    1.049287e+00
     134,   -4.314134e-01,   -1.995798e-01,    1.558230e+00
     135,   -4.262617e-01,    2.103582e-01,    1.558230e+00
     136,   -3.972293e-01,   -1.763233e-01,    2.067445e+00
     137,   -1.408597e-01,    1.522471e-01,    4.907323e+00
     138,   -3.926728e-01,    1.862500e-01,    2.067445e+00
     139,   -3.806198e-01,   -1.652779e-01,    2.313054e+00
     140,   -3.438174e-01,   -1.714715e-01,    2.697447e+00
     141,   -3.333193e-01,   -1.649148e-01,    2.851434e+00
     142,   -3.290697e-01,    1.732391e-01,    2.851434e+00
     143,   -3.122883e-01,   -1.522343e-01,    3.157275e+00
     144,   -3.083640e-01,    1.600341e-01,    3.157275e+00
     145,   -2.912727e-01,   -1.394891e-01,    3.463119e+00
     146,   -2.807692e-01,   -1.330918e-01,    3.616044e+00
     147,    2.001989e-01,    5.341850e-02,    4.909960e+00
     148,   -2.704205e-01,   -1.263782e-01,    3.768824e+00
     149,   -2.671592e-01,    1.331339e-01,    3.768824e+00
     150,   -2.492631e-01,   -1.138032e-01,    4.074834e+00
     151,   -2.463245e-01,    1.200313e-01,    4.074834e+00
     152,   -2.364668e-01,    1.122726e-01,    4.227919e+00
     153,   -2.263352e-01,    1.050599e-01,    4.380876e+00
     154,   -2.165475e-01,    9.700663e-02,    4.533965e+00
     155,   -2.068993e-01,    8.893188e-02,    4.684968e+00
     156,   -1.921206e-01,    9.493677e-02,    4.821284e+00
     157,   -1.525728e-01,    1.597238e-01,    4.738939e+00
     158,   -1.540487e-01,    1.719944e-01,    4.613797e+00
     159,   -1.614595e-01,    1.818501e-01,    4.460196e+00
     160,   -1.656532e-01,    1.944922e-01,    4.306545e+00
     161,   -1.692829e-01,    2.073711e-01,    4.153839e+00
     162,   -1.917207e-01,   -2.365282e-01,    3.694116e+00
     163,   -1.964098e-01,   -2.484557e-01,    3.541089e+00
     164,   -2.246785e-01,   -3.038406e-01,    2.776396e+00
     165,   -2.830802e-01,   -3.164980e-01,    2.192203e+00
     166,   -3.263779e-01,   -4.125410e-01,    9.245643e-01
     167,   -4.140695e-01,   -4.867204e-01,   -4.877862e-01
     168,   -4.532906e-01,   -5.659841e-01,   -1.564097e+00
     169,   -5.021938e-01,    6.437432e-01,   -2.705727e+00
     170,    9.108859e-03,    9.315835e-01,   -4.145350e+00
     171,   -4.952403e-01,    7.862467e-01,   -4.115230e+00
     172,   -1.564130e-01,   -1.559750e-01,    4.738852e+00
     173,   -1.588178e-01,   -1.677070e-01,    4.612832e+00
     174,   -1.659784e-01,   -1.777351e-01,    4.460196e+00
     175,    2.147253e-01,    4.262344e-04,    4.815929e+00
     176,   -1.741527e-01,    2.192585e-01,    3.999922e+00
     177,   -1.793329e-01,    2.308002e-01,    3.846470e+00
     178,   -1.796077e-01,   -2.148128e-01,    3.999922e+00
     179,   -1.850763e-01,   -2.262207e-01,    3.846470e+00
     180,   -1.857161e-01,    2.412715e-01,    3.694116e+00
     181,   -1.901040e-01,    2.533130e-01,    3.541089e+00
     182,   -1.954433e-01,    2.645916e-01,    3.388149e+00
     183,   -2.007983e-01,    2.758369e-01,    3.235210e+00
     184,   -2.076667e-01,   -2.707037e-01,    3.235210e+00
     185,   -2.020308e-01,   -2.595966e-01,    3.388149e+00
     186,   -2.061707e-01,    2.870507e-01,    3.082272e+00
     187,   -2.115617e-01,    2.982348e-01,    2.929334e+00
     188,   -2.133192e-01,   -2.817790e-01,    3.082272e+00
     189,   -2.189895e-01,   -2.928241e-01,    2.929334e+00
     190,   -2.169720e-01,    3.093909e-01,    2.776396e+00
     191,   -2.271336e-01,    3.188865e-01,    2.606153e+00
     192,   -2.350727e-01,   -3.130836e-01,    2.606118e+00
     193,   -2.594014e-01,   -3.135307e-01,    2.413396e+00
     194,   -2.514405e-01,    3.199505e-01,    2.413396e+00
     195,   -2.751260e-01,    3.234279e-01,    2.192283e+00
     196,   -2.824823e-01,    3.431282e-01,    1.944411e+00
     197,   -2.893666e-01,    3.639372e-01,    1.688060e+00
     198,   -2.984210e-01,   -3.565505e-01,    1.688060e+00
     199,   -2.910160e-01,   -3.359210e-01,    1.944411e+00
     200,   -2.978531e-01,    3.832399e-01,    1.432807e+00
     201,   -3.073899e-01,   -3.756338e-01,    1.432807e+00
     202,   -3.184525e-01,   -3.928004e-01,    1.179100e+00
     203,   -3.084809e-01,    4.006791e-01,    1.179100e+00
     204,   -3.159077e-01,    4.206127e-01,    9.245643e-01
     205,   -3.247910e-01,    4.393829e-01,    6.700738e-01
     206,   -3.337003e-01,    4.580976e-01,    4.155842e-01
     207,   -3.357302e-01,   -4.310821e-01,    6.700738e-01
     208,   -3.451069e-01,   -4.495670e-01,    4.155842e-01
     209,   -3.499760e-01,    4.731594e-01,    1.434233e-01
     210,   -3.778445e-01,    4.826191e-01,   -1.616708e-01
     211,   -3.617560e-01,   -4.642151e-01,    1.434233e-01
     212,   -3.898534e-01,   -4.729714e-01,   -1.616708e-01
     213,   -4.017074e-01,    4.969723e-01,   -4.877862e-01
     214,   -4.128657e-01,    5.248980e-01,   -8.476789e-01
     215,   -4.259260e-01,   -5.143569e-01,   -8.476789e-01
     216,   -4.416235e-01,   -5.390921e-01,   -1.211088e+00
     217,   -4.279366e-01,    5.500199e-01,   -1.211088e+00
     218,   -4.389242e-01,    5.771965e-01,   -1.564097e+00
     219,   -4.507218e-01,    6.044075e-01,   -1.924525e+00
     220,   -4.723335e-01,    6.261708e-01,   -2.304246e+00
     221,   -4.657683e-01,   -5.928900e-01,   -1.924525e+00
     222,   -5.434362e-01,   -6.550737e-01,   -3.139288e+00
     223,   -5.689651e-01,   -6.813550e-01,   -3.595931e+00
     224,   -5.768952e-01,   -7.257265e-01,   -4.088565e+00
     225,    1.857844e-01,   -1.077823e-01,    4.815179e+00
     226,    1.066127e-01,   -1.864581e-01,    4.815179e+00
     227,   -2.496652e-03,   -2.149515e-01,    4.812925e+00
     228,   -1.089758e-01,   -1.849457e-01,    4.816699e+00
     229,    4.631032e-01,   -8.063524e-01,   -4.123446e+00
     230,    1.253385e-02,   -9.307313e-01,   -4.135196e+00
     231,    8.027927e-01,    4.686282e-01,   -4.119546e+00
     232,    4.694898e-01,    8.027158e-01,   -4.124148e+00
     233,   -5.268025e-01,    6.685235e-01,   -3.139288e+00
     234,    1.861304e-01,    1.069433e-01,    4.816678e+00
     235,   -5.425645e-01,    7.039289e-01,   -3.609484e+00
     236,    1.081107e-01,    1.854548e-01,    4.816678e+00
     237,    5.450636e-04,    2.148047e-01,    4.814933e+00
     238,   -1.057978e-01,    1.866528e-01,    4.818103e+00
     239,   -4.879200e-01,   -6.141032e-01,   -2.304246e+00
     240,   -5.182125e-01,   -6.309197e-01,   -2.705727e+00
     241,    9.305032e-01,   -9.944937e-04,   -4.131296e+00
     242,    8.004721e-01,   -4.725411e-01,   -4.119290e+00
     243,   -1.704885e-01,   -1.902679e-01,    4.306545e+00
     244,   -1.744407e-01,   -2.030515e-01,    4.153839e+00
     245,   -1.882609e-01,    8.304541e-02,    4.927953e+00
     246,   -1.901964e-01,   -7.850802e-02,    4.927970e+00
     247,   -7.462912e-02,   -2.503333e-01,    4.234741e+00
     248,    8.666314e-01,   -2.337029e-01,   -3.719870e+00
     249,   -1.827080e-01,   -7.801744e-01,   -2.516037e+00
     250,   -6.178138e-02,    2.151239e-01,    4.702254e+00
     251,    5.867095e-02,    2.147903e-01,    4.716759e+00
     252,   -1.863420e-01,    8.827693e-01,   -3.777778e+00
     253,    1.565803e-01,    1.583355e-01,    4.716468e+00
     254,   -1.720922e-01,    8.523788e-01,   -3.369721e+00
     255,    6.088337e-01,    6.507907e-01,   -3.639787e+00
     256,    8.673737e-01,    2.309223e-01,   -3.719836e+00
     257,   -2.484678e-01,   -8.720192e-01,   -3.834086e+00
     258,    6.007103e-01,   -6.582050e-01,   -3.638943e+00
     259,    2.003198e-01,   -8.738567e-01,   -3.706538e+00
     260,   -6.662285e-02,   -2.138256e-01,    4.700447e+00
     261,    5.619908e-02,   -2.156219e-01,    4.714683e+00
     262,    1.560060e-01,   -1.591502e-01,    4.714248e+00
     263,   -1.944572e-01,   -8.483149e-01,   -3.378963e+00
     264,   -1.802576e-01,   -8.160369e-01,   -2.946359e+00
     265,   -1.632577e-01,   -7.518745e-01,   -2.117435e+00
     266,   -1.443114e-01,    7.557398e-01,   -2.117435e+00
     267,   -1.390552e-01,    7.257654e-01,   -1.737084e+00
     268,   -1.421825e-01,    6.960002e-01,   -1.379683e+00
     269,   -1.616293e-01,   -6.626432e-01,   -1.025880e+00
     270,   -1.449259e-01,    6.664957e-01,   -1.025880e+00
     271,   -1.493423e-01,    6.354815e-01,   -6.599237e-01
     272,   -1.352420e-01,   -5.864624e-01,   -2.317785e-02
     273,   -1.382755e-01,    6.111651e-01,   -3.326527e-01
     274,   -1.204614e-01,    5.896758e-01,   -2.317785e-02
     275,   -1.141083e-01,   -5.665435e-01,    2.759918e-01
     276,   -1.081272e-01,   -5.456088e-01,    5.472523e-01
     277,   -9.983497e-02,    5.692322e-01,    2.759918e-01
     278,   -9.438190e-02,    5.481538e-01,    5.472523e-01
     279,   -9.670456e-02,    5.269912e-01,    8.026185e-01
     280,   -1.000347e-01,    5.055567e-01,    1.058017e+00
     281,   -1.147534e-01,   -4.818639e-01,    1.308257e+00
     282,   -1.026079e-01,    4.845955e-01,    1.308257e+00
     283,   -1.156186e-01,   -4.604774e-01,    1.565368e+00
     284,   -1.193952e-01,   -4.381957e-01,    1.822870e+00
     285,   -1.040102e-01,    4.632375e-01,    1.565368e+00
     286,   -1.083456e-01,    4.410578e-01,    1.822870e+00
     287,   -1.146280e-01,    4.186888e-01,    2.073792e+00
     288,   -9.752875e-02,    4.051138e-01,    2.291398e+00
     289,   -8.701625e-02,   -3.907060e-01,    2.496517e+00
     290,   -7.717029e-02,    3.927694e-01,    2.496517e+00
     291,   -5.610129e-02,    3.809838e-01,    2.686348e+00
     292,   -6.289468e-02,   -3.537803e-01,    3.008407e+00
     293,   -5.271449e-02,    3.678064e-01,    2.855441e+00
     294,   -5.398428e-02,    3.552491e-01,    3.008407e+00
     295,   -6.389122e-02,   -3.411591e-01,    3.161373e+00
     296,   -6.492995e-02,   -3.284976e-01,    3.314337e+00
     297,   -5.529769e-02,    3.426569e-01,    3.161373e+00
     298,   -5.665427e-02,    3.300255e-01,    3.314337e+00
     299,   -5.805284e-02,    3.173499e-01,    3.467300e+00
     300,   -6.011075e-02,    3.044088e-01,    3.621412e+00
     301,   -7.118604e-02,   -2.641676e-01,    4.080114e+00
     302,   -6.948359e-02,   -2.773419e-01,    3.926082e+00
     303,   -6.175299e-02,    2.918032e-01,    3.771677e+00
     304,   -6.249202e-02,    2.790005e-01,    3.926082e+00
     305,    2.151681e-01,   -5.696822e-02,    4.717727e+00
     306,    2.147418e-01,    5.823159e-02,    4.718787e+00
     307,   -7.774940e-02,   -2.363727e-01,    4.389608e+00
     308,   -8.275200e-02,   -2.216466e-01,    4.542618e+00
     309,    2.261388e-01,    8.675789e-01,   -3.707084e+00
     310,   -1.630445e-01,    7.845195e-01,   -2.516037e+00
     311,   -1.597290e-01,    8.202122e-01,   -2.945255e+00
     312,   -1.596282e-01,   -6.922073e-01,   -1.379683e+00
     313,   -1.572498e-01,   -7.220417e-01,   -1.737084e+00
     314,   -1.652648e-01,   -6.315278e-01,   -6.599237e-01
     315,   -1.535905e-01,   -6.074972e-01,   -3.326527e-01
     316,   -1.127078e-01,   -5.028832e-01,    1.058017e+00
     317,   -1.099174e-01,   -5.243946e-01,    8.026185e-01
     318,   -1.076785e-01,   -4.025349e-01,    2.291398e+00
     319,   -1.251123e-01,   -4.156764e-01,    2.073791e+00
     320,   -6.566594e-02,   -3.794525e-01,    2.686344e+00
     321,   -6.194085e-02,   -3.663655e-01,    2.855441e+00
     322,   -6.600954e-02,   -3.157908e-01,    3.467300e+00
     323,   -6.906653e-02,   -2.901591e-01,    3.771677e+00
     324,   -6.774158e-02,   -3.028021e-01,    3.621412e+00
     325,   -6.452500e-02,    2.658731e-01,    4.080114e+00
     326,   -6.831465e-02,    2.521296e-01,    4.234741e+00
     327,   -7.178074e-02,    2.382491e-01,    4.389656e+00
     328,   -7.708025e-02,    2.236647e-01,    4.542825e+00
     329,    2.265735e-01,   -8.305256e-01,   -3.260956e+00
     330,    2.470643e-01,    8.247342e-01,   -3.261820e+00
     331,    2.902567e-02,    2.399905e-01,    4.478258e+00
     332,    3.717239e-02,    2.517536e-01,    4.318961e+00
     333,    4.792868e-02,    2.626033e-01,    4.163234e+00
     334,    6.863646e-02,   -2.960969e-01,    3.700651e+00
     335,    7.606826e-02,   -3.068054e-01,    3.548815e+00
     336,    1.113731e-01,   -3.618915e-01,    2.766980e+00
     337,    7.291626e-02,   -4.198592e-01,    2.173203e+00
     338,    1.260567e-01,   -5.096648e-01,    9.372201e-01
     339,    1.258213e-01,   -6.275517e-01,   -5.005092e-01
     340,    1.680786e-01,   -7.041793e-01,   -1.549507e+00
     341,    2.082323e-01,    7.939565e-01,   -2.760114e+00
     342,    2.372332e-02,   -2.406411e-01,    4.477405e+00
     343,    2.305811e-01,    1.643532e-03,    4.617663e+00
     344,    5.907220e-02,    2.730894e-01,    4.007433e+00
     345,    6.801479e-02,    2.838044e-01,    3.851993e+00
     346,    6.086128e-02,   -2.854239e-01,    3.851993e+00
     347,    5.219078e-02,   -2.744876e-01,    4.007433e+00
     348,    7.605573e-02,    2.942786e-01,    3.700651e+00
     349,    8.375429e-02,    3.047969e-01,    3.548815e+00
     350,    9.243776e-02,    3.151500e-01,    3.394664e+00
     351,    1.004378e-01,    3.255241e-01,    3.241668e+00
     352,    8.448882e-02,   -3.173734e-01,    3.394664e+00
     353,    9.222563e-02,   -3.279453e-01,    3.241668e+00
     354,    1.083578e-01,    3.358595e-01,    3.088668e+00
     355,    1.161999e-01,    3.461645e-01,    2.935663e+00
     356,    1.074640e-01,   -3.489753e-01,    2.935663e+00
     357,    9.988338e-02,   -3.384765e-01,    3.088668e+00
     358,    1.207124e-01,    3.588031e-01,    2.767942e+00
     359,    1.081113e-01,    3.786356e-01,    2.577905e+00
     360,    8.452405e-02,   -4.008721e-01,    2.378922e+00
     361,    9.856203e-02,   -3.812328e-01,    2.577905e+00
     362,    9.457131e-02,    3.986215e-01,    2.378922e+00
     363,    8.344433e-02,    4.178942e-01,    2.173203e+00
     364,    7.901456e-02,    4.362997e-01,    1.957540e+00
     365,    9.690339e-02,    4.535963e-01,    1.702104e+00
     366,    6.802538e-02,   -4.381475e-01,    1.957540e+00
     367,    8.547387e-02,   -4.558882e-01,    1.702104e+00
     368,    1.127946e-01,    4.713201e-01,    1.442138e+00
     369,    1.137364e-01,   -4.918358e-01,    1.189810e+00
     370,    1.009147e-01,   -4.740057e-01,    1.442138e+00
     371,    1.260603e-01,    4.888222e-01,    1.189810e+00
     372,    1.388248e-01,    5.063360e-01,    9.372201e-01
     373,    1.531762e-01,    5.235803e-01,    6.809174e-01
     374,    1.600403e-01,    5.441104e-01,    4.105154e-01
     375,    1.399702e-01,   -5.272643e-01,    6.809174e-01
     376,    1.463162e-01,   -5.479604e-01,    4.105154e-01
     377,    1.527574e-01,    5.709317e-01,    1.123214e-01
     378,    1.445987e-01,    5.978777e-01,   -1.889383e-01
     379,    1.295283e-01,   -6.013227e-01,   -1.889383e-01
     380,    1.383616e-01,   -5.745902e-01,    1.123214e-01
     381,    1.415520e-01,    6.241916e-01,   -5.005092e-01
     382,    1.456873e-01,    6.505317e-01,   -8.330688e-01
     383,    1.495501e-01,   -6.793021e-01,   -1.194616e+00
     384,    1.292934e-01,   -6.539873e-01,   -8.330688e-01
     385,    1.665738e-01,    6.753294e-01,   -1.194616e+00
     386,    1.857216e-01,    6.997330e-01,   -1.549507e+00
     387,    1.944154e-01,    7.286164e-01,   -1.926352e+00
     388,    1.965477e-01,    7.612299e-01,   -2.327432e+00
     389,    1.760438e-01,   -7.332719e-01,   -1.926352e+00
     390,    1.998135e-01,   -1.153637e-01,    4.615932e+00
     391,    1.107319e-01,   -2.046924e-01,    4.590948e+00
     392,    2.308146e-03,   -2.310607e-01,    4.611597e+00
     393,    7.526684e-01,    4.274298e-01,   -3.319586e+00
     394,    1.990806e-01,    1.162356e-01,    4.618383e+00
     395,    1.133153e-01,    2.031800e-01,    4.591971e+00
     396,    5.957464e-03,    2.308519e-01,    4.613391e+00
     397,    1.893403e-01,   -7.986741e-01,   -2.760132e+00
     398,    1.773559e-01,   -7.659287e-01,   -2.327432e+00
     399,    7.475948e-01,   -4.362050e-01,   -3.319347e+00
     400,    8.642042e-01,   -3.130857e-03,   -3.302623e+00
     401,    4.131430e-02,   -2.637248e-01,    4.163234e+00
     402,    3.103301e-02,   -2.525192e-01,    4.319764e+00
     403,    1.372093e-01,   -2.210031e-01,    4.248348e+00
     404,    7.860891e-01,   -2.681379e-01,   -2.882031e+00
     405,    5.272210e-01,   -6.094350e-01,   -2.572960e+00
     406,    1.744686e-01,    1.649212e-01,    4.499003e+00
     407,    7.899220e-01,    2.569688e-01,   -2.883353e+00
     408,    1.709506e-01,   -1.672810e-01,    4.510251e+00
     409,    5.364787e-01,   -6.498014e-01,   -3.033068e+00
     410,    4.870661e-01,   -5.971276e-01,   -2.132260e+00
     411,    5.019182e-01,    5.846990e-01,   -2.132260e+00
     412,    4.815692e-01,    5.604502e-01,   -1.736589e+00
     413,    4.567233e-01,    5.420809e-01,   -1.360444e+00
     414,    4.144827e-01,   -5.391829e-01,   -1.001049e+00
     415,    4.279016e-01,    5.285966e-01,   -1.001049e+00
     416,    4.064850e-01,    5.116086e-01,   -6.679006e-01
     417,    3.767266e-01,   -4.722099e-01,   -5.092274e-02
     418,    3.970227e-01,    4.868034e-01,   -3.521947e-01
     419,    3.884743e-01,    4.625936e-01,   -5.092274e-02
     420,    3.719954e-01,   -4.450869e-01,    2.491057e-01
     421,    3.654005e-01,   -4.193819e-01,    5.470473e-01
     422,    3.830630e-01,    4.355981e-01,    2.491057e-01
     423,    3.758242e-01,    4.100669e-01,    5.470473e-01
     424,    3.579983e-01,    3.969507e-01,    8.182546e-01
     425,    3.373048e-01,    3.882365e-01,    1.071279e+00
     426,    3.060627e-01,   -3.878798e-01,    1.323873e+00
     427,    3.157135e-01,    3.800659e-01,    1.323873e+00
     428,    2.827663e-01,   -3.797179e-01,    1.582040e+00
     429,    2.582811e-01,   -3.716566e-01,    1.842624e+00
     430,    2.922193e-01,    3.724920e-01,    1.582040e+00
     431,    2.675393e-01,    3.650486e-01,    1.842624e+00
     432,    2.610166e-01,    3.482563e-01,    2.059812e+00
     433,    2.597307e-01,    3.287582e-01,    2.262784e+00
     434,    2.541961e-01,   -3.127322e-01,    2.462375e+00
     435,    2.619748e-01,    3.062454e-01,    2.462375e+00
     436,    2.636989e-01,    2.835017e-01,    2.660218e+00
     437,    2.493354e-01,   -2.578115e-01,    3.016786e+00
     438,    2.670725e-01,    2.589921e-01,    2.849654e+00
     439,    2.560243e-01,    2.514859e-01,    3.014021e+00
     440,    2.354971e-01,   -2.539974e-01,    3.170350e+00
     441,    2.222631e-01,   -2.494681e-01,    3.323518e+00
     442,    2.414830e-01,    2.483382e-01,    3.170127e+00
     443,    2.261473e-01,    2.456728e-01,    3.326090e+00
     444,    2.142737e-01,    2.398803e-01,    3.479433e+00
     445,    2.032496e-01,    2.336025e-01,    3.629427e+00
     446,    1.559311e-01,   -2.235992e-01,    4.092492e+00
     447,    1.708765e-01,   -2.283208e-01,    3.935216e+00
     448,    1.901965e-01,    2.287713e-01,    3.781150e+00
     449,    1.765603e-01,    2.239545e-01,    3.935216e+00
     450,    2.299997e-01,    6.796838e-02,    4.502096e+00
     451,    2.315749e-01,   -5.955550e-02,    4.511119e+00
     452,    1.249236e-01,   -2.133349e-01,    4.409751e+00
     453,    5.487591e-01,    6.393309e-01,   -3.031801e+00
     454,    5.401242e-01,    5.982460e-01,   -2.574972e+00
     455,    4.429565e-01,   -5.533872e-01,   -1.360444e+00
     456,    4.673329e-01,   -5.723751e-01,   -1.736589e+00
     457,    3.846639e-01,   -4.966268e-01,   -3.521947e-01
     458,    3.934998e-01,   -5.216621e-01,   -6.679006e-01
     459,    3.274418e-01,   -3.965904e-01,    1.071279e+00
     460,    3.479098e-01,   -4.058219e-01,    8.182546e-01
     461,    2.521825e-01,   -3.547057e-01,    2.059812e+00
     462,    2.513869e-01,   -3.351814e-01,    2.262784e+00
     463,    2.574700e-01,   -2.684527e-01,    2.850442e+00
     464,    2.564912e-01,   -2.900390e-01,    2.660218e+00
     465,    2.090886e-01,   -2.446083e-01,    3.477577e+00
     466,    1.843874e-01,   -2.334787e-01,    3.781150e+00
     467,    1.973149e-01,   -2.386365e-01,    3.629427e+00
     468,    1.623573e-01,    2.188663e-01,    4.093610e+00
     469,    1.468526e-01,    2.143420e-01,    4.252208e+00
     470,    1.261088e-01,    2.124236e-01,    4.412039e+00
     471,    2.137263e-01,    1.331890e-01,    4.352127e+00
     472,    2.325181e-01,    1.283347e-01,    4.180209e+00
     473,    2.722107e-01,   -1.326693e-01,    3.714753e+00
     474,    2.841618e-01,   -1.358544e-01,    3.562910e+00
     475,    3.470453e-01,   -1.563054e-01,    2.742246e+00
     476,    3.791305e-01,   -1.983791e-01,    2.151311e+00
     477,    4.737279e-01,   -2.231095e-01,    9.545342e-01
     478,    5.737471e-01,   -2.866073e-01,   -5.168721e-01
     479,    6.547110e-01,   -3.076625e-01,   -1.542458e+00
     480,    2.477825e-01,    6.891897e-03,    4.401521e+00
     481,    2.506781e-01,    1.198820e-01,    4.026637e+00
     482,    2.631604e-01,    1.235002e-01,    3.866267e+00
     483,    2.598025e-01,   -1.306832e-01,    3.864769e+00
     484,    2.439923e-01,   -1.335224e-01,    4.023281e+00
     485,    2.771481e-01,    1.226504e-01,    3.711568e+00
     486,    2.906934e-01,    1.213491e-01,    3.562436e+00
     487,    3.009798e-01,    1.273890e-01,    3.414645e+00
     488,    3.119829e-01,    1.338237e-01,    3.256584e+00
     489,    2.994390e-01,   -1.327540e-01,    3.405657e+00
     490,    3.153962e-01,   -1.264983e-01,    3.252269e+00
     491,    3.345524e-01,    1.115855e-01,    3.091616e+00
     492,    3.531982e-01,    9.040936e-02,    2.942678e+00
     493,    3.382629e-01,   -1.007692e-01,    3.088081e+00
     494,    3.440418e-01,   -1.215158e-01,    2.939113e+00
     495,    3.565149e-01,    1.327689e-01,    2.744568e+00
     496,    3.653994e-01,    1.530246e-01,    2.548149e+00
     497,    3.704489e-01,   -1.805122e-01,    2.348892e+00
     498,    3.591086e-01,   -1.679765e-01,    2.544335e+00
     499,    3.737656e-01,    1.736005e-01,    2.348577e+00
     500,    3.839960e-01,    1.887889e-01,    2.151311e+00
     501,    3.954235e-01,    2.026693e-01,    1.945799e+00
     502,    4.108972e-01,    2.116040e-01,    1.722717e+00
     503,    3.909237e-01,   -2.111731e-01,    1.946068e+00
     504,    4.036431e-01,   -2.248022e-01,    1.724733e+00
     505,    4.360135e-01,    2.070239e-01,    1.466672e+00
     506,    4.528813e-01,   -2.188062e-01,    1.212889e+00
     507,    4.301986e-01,   -2.191861e-01,    1.464773e+00
     508,    4.601990e-01,    2.039618e-01,    1.207848e+00
     509,    4.844614e-01,    1.987480e-01,    9.544436e-01
     510,    5.032926e-01,    2.093127e-01,    6.864648e-01
     511,    5.209399e-01,    2.282923e-01,    3.904138e-01
     512,    4.978808e-01,   -2.236033e-01,    6.776599e-01
     513,    5.206266e-01,   -2.293799e-01,    3.885305e-01
     514,    5.401598e-01,    2.442370e-01,    8.986859e-02
     515,    5.615853e-01,    2.550447e-01,   -2.098341e-01
     516,    5.556059e-01,   -2.676864e-01,   -2.091046e-01
     517,    5.373232e-01,   -2.508458e-01,    8.759684e-02
     518,    5.807684e-01,    2.720985e-01,   -5.168721e-01
     519,    6.024260e-01,    2.845821e-01,   -8.282652e-01
     520,    6.227183e-01,   -3.052689e-01,   -1.168975e+00
     521,    5.950841e-01,   -2.996312e-01,   -8.282652e-01
     522,    6.301931e-01,    2.895235e-01,   -1.168975e+00
     523,    6.622358e-01,    2.911124e-01,   -1.542458e+00
     524,    6.917485e-01,    3.018488e-01,   -1.934218e+00
     525,    7.219148e-01,    3.206857e-01,   -2.374211e+00
     526,    6.839445e-01,   -3.191372e-01,   -1.934218e+00
     527,    2.169272e-01,   -1.185859e-01,    4.409692e+00
     528,    7.176718e-01,   -3.295587e-01,   -2.371533e+00
     529,    8.056629e-01,   -1.679055e-03,   -2.570808e+00
     530,    2.265038e-01,   -1.392652e-01,    4.176345e+00
     531,    2.554602e-01,    4.147909e-02,    4.264928e+00
     532,    7.710890e-01,    8.310315e-03,   -2.139172e+00
     533,    7.383867e-01,   -2.728868e-02,   -1.736135e+00
     534,    7.073655e-01,   -1.921623e-02,   -1.345331e+00
     535,    6.792931e-01,   -7.779170e-03,   -9.917207e-01
     536,    6.537961e-01,   -1.231726e-02,   -6.739014e-01
     537,    6.053067e-01,    7.552246e-03,   -6.692225e-02
     538,    6.294621e-01,   -1.546034e-02,   -3.706490e-01
     539,    5.815183e-01,    7.906072e-03,    2.303493e-01
     540,    5.572554e-01,    5.076605e-03,    5.340189e-01
     541,    5.338944e-01,   -1.807106e-02,    8.224977e-01
     542,    5.121277e-01,   -1.842134e-02,    1.094264e+00
     543,    4.920784e-01,   -3.757012e-03,    1.348841e+00
     544,    4.709975e-01,   -1.971552e-02,    1.607375e+00
     545,    4.532518e-01,   -1.300405e-02,    1.832021e+00
     546,    4.367206e-01,    1.605784e-03,    2.040956e+00
     547,    4.208364e-01,   -6.775686e-03,    2.238864e+00
     548,    4.050464e-01,    3.315328e-03,    2.436750e+00
     549,    3.889813e-01,   -1.573202e-02,    2.633758e+00
     550,    3.734614e-01,   -2.189606e-02,    2.823716e+00
     551,    3.449862e-01,    1.334861e-02,    3.184446e+00
     552,    3.326129e-01,    9.098526e-03,    3.340783e+00
     553,    3.203273e-01,   -1.319560e-02,    3.492513e+00
     554,    3.082303e-01,   -1.119994e-02,    3.644579e+00
     555,    2.699951e-01,   -1.295990e-02,    4.121176e+00
     556,    2.834833e-01,   -7.834935e-03,    3.955105e+00
     557,    2.963914e-01,   -5.821922e-03,    3.794393e+00
     558,    2.503627e-01,   -5.946380e-02,    4.283407e+00
     559,    2.044459e-01,   -1.525604e-01,    4.311329e+00
     560,    8.775493e-02,    2.330363e-02,    5.000000e+00
     561,    2.833944e-02,    1.031143e-01,    5.000000e+00
     562,   -6.316924e-02,    6.467731e-02,    5.000000e+00
     563,   -2.405436e-02,   -8.727407e-02,    5.000000e+00
     564,   -1.034611e-01,   -2.662137e-02,    5.000000e+00
     565,    7.520847e-02,   -7.574571e-02,    5.000000e+00
     566,    4.205764e-01,   -1.131530e-01,   -5.000000e+00
     567,    1.377260e-01,   -5.207632e-01,   -5.000000e+00
     568,   -3.195368e-01,   -3.542530e-01,   -5.000000e+00
     569,   -4.344819e-01,    9.923109e-02,   -5.000000e+00
     570,   -1.446907e-01,    4.599943e-01,   -5.000000e+00
     571,    3.732155e-01,    3.808231e-01,   -5.000000e+00
     572,   -9.206604e-02,   -1.961369e-01,    3.254804e+00
     573,    3.922075e-02,   -2.408911e-01,    3.313513e+00
     574,    1.448222e-01,   -1.086016e-01,    3.234063e+00
     575,    5.853886e-02,   -6.732104e-02,    3.334573e+00
     576,   -2.515339e-02,    1.275142e-02,    3.387432e+00
     577,   -6.097406e-02,   -1.730687e-01,    3.409986e+00
     578,    4.902735e-01,    1.754086e-01,   -3.398201e+00
     579,    4.156218e-01,    5.048063e-01,   -3.399379e+00
     580,    1.381498e-01,    1.122826e-01,    3.302439e+00
     581,    1.202585e-02,    1.943168e-01,    3.397240e+00
     582,    4.768750e-02,    9.974605e-02,    3.228690e+00
     583,    1.768093e-01,   -3.186584e-02,    3.504720e+00
     584,    1.616040e-01,    1.189447e-01,    3.445732e+00
     585,   -5.576422e-02,   -7.237415e-03,    3.147979e+00
     586,    1.274231e-01,    4.923783e-02,    3.069157e+00
     587,    4.524828e-02,    1.287094e-01,    4.061476e+00
     588,   -1.389453e-01,    9.553205e-02,    4.037381e+00
     589,   -1.467017e-01,    8.090495e-02,    4.173261e+00
     590,   -6.644967e-02,    1.762818e-01,    4.153241e+00
     591,    2.355999e-01,    2.771406e-02,    3.186785e+00
     592,    1.318390e-01,    1.960361e-01,    3.126326e+00
     593,   -5.385412e-03,   -3.123859e-01,    1.214784e+00
     594,    1.496009e-02,    4.904580e-01,   -2.717701e+00
     595,   -4.207743e-01,    2.113854e-01,   -2.840856e+00
     596,    5.453808e-03,   -1.045710e-01,   -2.799401e+00
     597,    3.963312e-02,    1.680472e-01,   -2.497072e+00
     598,   -2.238072e-01,   -3.523787e-01,   -2.423010e+00
     599,   -3.583460e-01,    1.522292e-01,   -2.379059e+00
     600,    4.648428e-02,    5.601094e-03,   -2.242640e+00
     601,   -1.511550e-01,    4.362786e-01,   -2.063492e+00
     602,    4.848878e-01,   -8.577365e-02,   -2.604004e+00
     603,    8.187877e-02,   -1.801488e-01,   -2.581146e+00
     604,    2.679339e-01,    4.399727e-01,   -2.317602e+00
     605,   -1.708480e-01,    6.507304e-02,    2.512598e+00
     606,   -4.134921e-02,   -5.463903e-02,    2.371477e+00
     607,   -9.354964e-02,    2.284319e-01,    2.477461e+00
     608,    4.663626e-02,    9.209017e-02,    2.532095e+00
     609,   -8.267572e-02,    1.856239e-01,    2.675955e+00
     610,    1.123242e-01,    1.714494e-01,    2.579671e+00
     611,   -1.630416e-02,   -1.416692e-02,    2.612503e+00
     612,    1.735211e-01,   -2.324462e-02,    2.452244e+00
     613,    3.398358e-02,    2.401572e-01,    2.395650e+00
     614,    1.457464e-02,    4.658581e-02,    2.279637e+00
     615,    2.098934e-01,    1.334846e-01,    2.449355e+00
     616,    2.253742e-01,    1.664356e-02,    2.620925e+00
     617,    1.380083e-01,   -2.061122e-01,    2.572076e+00
     618,    4.645928e-02,    2.478517e-01,    2.196214e+00
     619,   -1.282147e-01,    2.378848e-01,    2.222498e+00
     620,   -9.547822e-02,    3.695469e-02,    2.147182e+00
     621,    2.567675e-01,   -4.521060e-02,    2.299480e+00
     622,    2.259546e-01,    1.420880e-01,    2.115628e+00
     623,    4.894124e-02,   -1.505219e-01,    4.189009e+00
     624,   -2.305701e-02,    9.406996e-03,    4.180085e+00
     625,    1.138981e-01,   -4.510241e-02,    4.206080e+00
     626,    6.029162e-02,   -3.091074e-02,    4.095048e+00
     627,   -1.190622e-01,   -7.350021e-02,    4.056148e+00
     628,   -8.242718e-02,   -1.373259e-01,    4.173105e+00
     629,    1.576738e-01,    4.223409e-02,    4.152017e+00
     630,    1.597719e-01,   -3.727913e-01,   -1.777700e+00
     631,    2.247207e-01,   -4.405957e-01,   -2.056867e+00
     632,    7.296815e-03,    6.656909e-03,    3.958004e+00
     633,    5.865286e-02,    1.448598e-01,    4.205141e+00
     634,    1.640279e-01,   -2.428124e-03,    4.011046e+00
     635,    1.483783e-03,   -3.207228e-01,    1.438093e+00
     636,    9.228385e-02,    2.307817e-01,    2.011152e+00
     637,   -1.079013e-01,    1.816557e-01,    1.959713e+00
     638,    7.043221e-02,    1.037683e-03,    2.063424e+00
     639,   -2.378628e-01,   -1.056866e-01,    2.095552e+00
     640,    2.329344e-01,   -1.205778e-01,    1.961630e+00
     641,    2.663021e-01,    7.771246e-02,    1.863729e+00
     642,    2.140528e-02,   -3.863030e-02,    1.838804e+00
     643,    2.044327e-02,   -2.330738e-01,    2.197805e+00
     644,    2.789237e-01,   -4.512519e-02,    2.136952e+00
     645,   -5.374014e-01,   -1.551617e-01,   -4.148220e+00
     646,   -4.689073e-02,    1.192080e-01,   -4.510490e+00
     647,   -5.203217e-01,   -2.048009e-01,   -4.647527e+00
     648,   -5.898927e-01,    2.771963e-01,   -4.619480e+00
     649,   -3.343191e-02,    2.106894e-01,    2.991657e+00
     650,   -5.894499e-02,    2.120833e-01,    3.164765e+00
     651,   -1.964875e-01,    5.851392e-02,    3.009419e+00
     652,   -1.232277e-02,   -3.459324e-02,    2.972340e+00
     653,   -2.517124e-01,   -1.599020e-01,    1.601644e+00
     654,    6.067076e-02,   -2.652608e-01,    2.365765e+00
     655,   -2.929153e-02,   -2.238685e-01,    3.011775e+00
     656,    4.410400e-02,   -1.882453e-01,    3.146278e+00
     657,   -1.769581e-01,   -1.278124e-01,    2.978605e+00
     658,   -7.385497e-02,    3.127896e-01,    5.957816e-02
     659,   -2.940578e-01,    8.536975e-03,    1.139163e+00
     660,    4.885460e-02,    9.218900e-02,    1.173307e+00
     661,   -1.660717e-01,    2.518924e-01,    1.192334e+00
     662,   -1.562927e-02,    1.206175e-01,    1.351467e+00
     663,    3.012294e-01,    1.855997e-02,    1.442735e+00
     664,   -5.653131e-03,   -1.144574e-01,    1.373111e+00
     665,   -1.356812e-02,    7.724544e-02,    1.571625e+00
     666,   -3.031179e-01,    3.299261e-02,    1.369566e+00
     667,   -2.492344e-01,    1.717220e-01,    1.513834e+00
     668,   -1.236843e-01,    2.775276e-01,    1.394221e+00
     669,   -3.464536e-02,   -7.743856e-02,    4.907853e+00
     670,   -1.124404e-01,   -4.491497e-02,    4.878367e+00
     671,   -9.366514e-02,   -1.027958e-01,    4.951657e+00
     672,    1.385758e-01,    3.119762e-01,    1.131951e+00
     673,   -9.541978e-02,    3.202855e-01,    9.452624e-01
     674,    1.396746e-01,   -1.547239e-01,    3.019623e+00
     675,    2.180704e-01,    3.873126e-02,    2.974627e+00
     676,    7.695770e-02,   -7.367266e-02,    2.899718e+00
     677,    1.712646e-01,    1.167493e-01,    2.749381e+00
     678,    1.055128e-01,    1.683721e-01,    2.930415e+00
     679,   -1.000099e-01,    2.663785e-02,    2.802286e+00
     680,    1.362713e-01,   -1.172542e-01,    2.750283e+00
     681,   -5.782906e-02,   -2.101671e-01,    2.699851e+00
     682,   -5.773055e-02,   -2.276550e-01,    2.890466e+00
     683,    2.828283e-01,    3.907050e-02,    1.684227e+00
     684,    5.667836e-02,   -1.352802e-01,    1.611103e+00
     685,   -2.184278e-01,   -1.554029e-01,    1.808824e+00
     686,   -8.057982e-02,   -2.933313e-01,    1.720319e+00
     687,   -9.157295e-02,   -2.757188e-01,    1.943283e+00
     688,   -2.598709e-01,    7.000271e-02,    1.793850e+00
     689,    1.590221e-01,   -1.485741e-01,    3.559211e+00
     690,    2.152346e-03,   -2.149239e-01,    3.515576e+00
     691,    8.290791e-02,   -1.904437e-01,    3.666584e+00
     692,    1.285723e-01,   -1.525547e-01,    3.407054e+00
     693,    3.106590e-02,    1.053448e-02,    3.576079e+00
     694,    1.368631e-02,   -1.023626e-01,    3.513735e+00
     695,   -1.661351e-01,   -9.412333e-02,    3.515330e+00
     696,   -2.198589e-01,    3.013216e-01,    7.576387e-01
     697,   -4.823957e-02,    2.786572e-01,    7.091328e-01
     698,    1.233803e-01,    3.614342e-01,    8.497071e-01
     699,   -1.532258e-01,   -5.646511e-02,    4.206442e+00
     700,   -1.607943e-01,   -5.492231e-02,    4.297574e+00
     701,   -5.299387e-02,   -1.509748e-01,    4.294293e+00
     702,   -1.914324e-02,   -4.500854e-02,    4.280864e+00
     703,    4.947274e-02,   -1.427011e-01,    4.329600e+00
     704,   -1.033884e-01,   -1.169729e-01,    4.381268e+00
     705,   -7.137490e-03,   -4.107378e-02,    4.404365e+00
     706,   -5.854727e-03,   -1.404189e-01,    4.638743e+00
     707,   -9.151141e-02,   -1.104697e-01,    4.527410e+00
     708,   -1.281274e-01,   -2.636798e-02,    4.648807e+00
     709,   -6.210497e-03,   -1.834570e-03,    4.640151e+00
     710,   -1.317549e-01,   -5.644205e-03,    4.540169e+00
     711,    1.283631e-01,   -3.067800e-02,    4.640662e+00
     712,    7.367883e-02,   -1.214414e-01,    4.506885e+00
     713,    1.506730e-02,    5.202952e-03,    4.528580e+00
     714,    1.444511e-01,   -3.079599e-02,    4.512326e+00
     715,    1.216969e-01,    8.057944e-02,    4.414948e+00
     716,   -2.008747e-01,    1.424037e-01,    2.315119e+00
     717,   -1.017018e-01,    3.188341e-01,    3.137750e-01
     718,    1.331332e-01,    2.638241e-01,   -1.474508e-01
     719,    1.775488e-01,    2.528658e-01,    1.703125e-01
     720,    1.110790e-01,   -1.716571e-02,    1.494803e-01
     721,    3.512385e-01,   -4.535813e-02,   -3.786700e-02
     722,   -8.234407e-02,   -3.004188e-02,   -1.275718e-01
     723,    2.605949e-01,   -2.759361e-01,    7.937125e-02
     724,    2.396091e-01,   -2.101182e-01,    3.971499e-01
     725,   -4.460080e-03,   -3.794563e-01,    1.698847e-01
     726,   -6.642316e-02,   -2.770269e-02,    3.413451e-01
     727,    1.126150e-01,   -2.872668e-01,    1.644315e+00
     728,    3.450972e-01,    2.193425e-01,   -5.049265e-02
     729,    3.062856e-01,   -3.653824e-02,    2.173512e-01
     730,    2.676889e-01,    1.153176e-01,    3.503030e-01
     731,   -3.152240e-01,    2.807252e-02,    1.908936e-01
     732,   -2.049571e-01,   -1.765359e-01,    9.421718e-02
     733,    2.277573e-01,   -2.103762e-01,    6.702174e-01
     734,   -2.989364e-02,   -3.730290e-01,    6.585717e-01
     735,    1.228654e-01,   -3.434427e-01,    7.978345e-01
     736,   -2.324707e-01,    1.612882e-01,    2.118110e+00
     737,   -2.379462e-01,   -9.849399e-02,    2.397216e+00
     738,    3.748970e-01,   -1.459657e-02,   -9.032139e-01
     739,    3.124577e-01,   -2.508279e-01,   -1.130318e+00
     740,    1.165549e-01,   -4.230531e-01,   -8.021567e-01
     741,   -1.450060e-01,   -3.143075e-01,   -9.402639e-01
     742,   -3.738810e-01,    5.226342e-02,   -1.289864e+00
     743,   -8.975052e-02,   -3.646124e-01,   -1.361731e+00
     744,    1.053252e-01,   -2.511270e-02,   -1.454664e+00
     745,    2.666685e-02,   -1.238806e-02,   -1.085452e+00
     746,   -1.095340e-01,    3.678633e-01,   -1.363299e+00
     747,    2.282231e-01,    3.814843e-01,   -8.563523e-01
     748,    3.219811e-01,    2.237143e-01,   -1.129156e+00
     749,   -4.208887e-01,    2.441328e-02,   -9.222711e-01
     750,   -2.854202e-02,   -1.299377e-01,    4.745170e+00
     751,   -3.135987e-02,   -4.465865e-03,    4.785216e+00
     752,    8.034516e-02,   -8.167765e-02,    4.844568e+00
     753,    3.840345e-02,    2.678121e-02,    4.908953e+00
     754,    1.366042e-01,    3.315743e-02,    4.825374e+00
     755,    1.360786e-01,   -8.607933e-03,    4.740169e+00
     756,    6.262788e-02,   -1.207866e-01,    4.749387e+00
     757,    1.452017e-01,   -6.608134e-02,    4.434686e+00
     758,    1.669773e-01,   -1.579625e-02,    3.649277e+00
     759,    1.214876e-01,    1.631083e-01,    3.708511e+00
     760,    1.655829e-01,    1.265312e-01,    3.574475e+00
     761,    1.581612e-01,   -1.093320e-01,    3.751499e+00
     762,    1.081608e-02,   -1.067201e-01,    3.678270e+00
     763,    2.850903e-03,   -3.724985e-02,    3.804461e+00
     764,    1.428739e-02,    1.658573e-02,    3.727270e+00
     765,   -1.633635e-02,    1.819388e-01,    3.864114e+00
     766,    1.242625e-01,    1.335333e-01,    3.867205e+00
     767,   -1.459817e-01,    9.959167e-02,    3.753958e+00
     768,   -1.518566e-01,   -1.000335e-01,    3.764931e+00
     769,    1.821252e-01,   -1.698087e-02,    3.817558e+00
     770,    1.081744e-01,   -1.535820e-01,    3.852636e+00
     771,   -3.582901e-02,    1.813978e-01,    3.690431e+00
     772,   -4.043533e-01,   -2.209095e-02,   -3.952297e-01
     773,   -3.961631e-01,    2.135436e-01,   -2.025542e+00
     774,   -4.975402e-01,   -1.073237e-01,   -2.191179e+00
     775,   -4.615575e-01,    3.906523e-02,   -2.586258e+00
     776,   -1.136706e-01,    4.995752e-01,   -3.308358e+00
     777,   -4.434223e-02,   -6.796075e-02,   -3.695786e+00
     778,    2.245249e-01,    4.994974e-01,   -3.689908e+00
     779,    3.965212e-02,    7.395676e-02,   -3.210895e+00
     780,    1.749702e-01,    4.856710e-01,   -3.059844e+00
     781,   -5.178998e-01,    2.051382e-01,   -3.177226e+00
     782,   -5.196805e-01,    2.308281e-01,   -3.623262e+00
     783,   -5.439619e-01,   -1.526564e-01,   -3.290568e+00
     784,   -2.260420e-01,   -4.795740e-01,   -3.289779e+00
     785,    2.890971e-01,   -3.683643e-01,   -3.012706e+00
     786,    2.878142e-01,   -1.761625e-01,   -3.505631e+00
     787,   -4.666145e-01,   -1.999766e-01,   -2.879445e+00
     788,   -1.527346e-01,    1.561827e-01,    3.321495e+00
     789,    9.452067e-02,    2.111706e-01,    3.311983e+00
     790,    5.293863e-02,   -1.412635e-01,    4.048027e+00
     791,   -6.560047e-02,   -1.777862e-01,    3.996408e+00
     792,    3.733071e-01,    1.997195e-01,   -3.815723e-01
     793,    1.273294e-01,    4.211279e-02,    4.293397e+00
     794,   -6.104777e-02,    1.243181e-01,    4.325770e+00
     795,    6.141608e-02,    1.157728e-01,    4.320619e+00
     796,   -1.747583e-01,    5.927679e-02,    4.431685e+00
     797,    5.129012e-01,    1.091930e-01,   -2.843690e+00
     798,   -2.031663e-01,   -4.526250e-01,   -3.889634e+00
     799,    3.476357e-01,   -3.153886e-01,   -4.117161e+00
     800,   -2.940264e-01,   -5.095917e-01,   -4.305116e+00
     801,    1.827600e-02,    1.371642e-01,   -4.048384e+00
     802,   -3.278791e-01,    4.518634e-01,   -4.427148e+00
     803,   -5.516431e-01,    2.959364e-01,   -4.092690e+00
     804,   -1.834541e-01,    5.355378e-01,   -3.648894e+00
     805,   -1.041651e-01,    5.469364e-01,   -4.041223e+00
     806,    1.031302e-01,    5.880617e-01,   -4.480530e+00
     807,    5.492250e-01,    2.021268e-01,   -4.152554e+00
     808,    4.944000e-01,    2.509137e-01,   -4.512442e+00
     809,    5.650952e-01,   -4.628110e-02,   -3.807705e+00
     810,   -5.607934e-02,   -1.930877e-01,    3.778796e+00
     811,   -1.406230e-01,   -2.423306e-01,    2.267228e+00
     812,    8.509797e-02,   -2.617544e-01,    1.973370e+00
     813,    1.715506e-01,   -5.252739e-01,   -3.772787e+00
     814,   -3.678404e-01,    2.875343e-01,   -1.185830e+00
     815,   -4.027541e-01,    2.346854e-01,   -1.564458e+00
     816,   -7.754141e-02,    3.942606e-01,   -1.712370e+00
     817,   -3.725596e-01,   -3.810624e-02,   -1.593246e+00
     818,   -6.323036e-02,    8.247009e-02,    4.423722e+00
     819,   -8.255186e-02,    1.186400e-01,    4.531656e+00
     820,   -1.474402e-01,   -3.751372e-02,    4.410721e+00
     821,   -1.284970e-01,    4.294576e-02,    4.308200e+00
     822,    1.654085e-01,    3.809609e-01,   -4.701943e-01
     823,    4.122250e-01,    1.382477e-01,   -6.714678e-01
     824,    2.605516e-01,    7.367398e-03,   -4.142117e-01
     825,   -9.831505e-02,   -2.146615e-01,    2.485742e+00
     826,   -2.246208e-02,    3.988225e-02,    6.269429e-01
     827,    2.670922e-01,    1.999764e-01,    7.480321e-01
     828,    8.381294e-03,   -2.326759e-03,    8.903885e-01
     829,    2.909165e-01,   -5.234997e-02,    9.216707e-01
     830,    2.454581e-01,    1.687139e-01,    1.028587e+00
     831,    3.332906e-01,   -9.593105e-03,    1.172504e+00
     832,    2.431033e-02,   -1.199910e-01,    1.121064e+00
     833,   -2.262722e-01,    1.881225e-01,    9.351788e-01
     834,   -2.534170e-01,   -2.424551e-02,    9.055224e-01
     835,   -1.986162e-01,   -2.246453e-01,    6.497825e-01
     836,    1.937870e-02,   -2.171392e-01,    7.229446e-01
     837,    5.171296e-02,   -3.164680e-01,    4.224666e-01
     838,    2.307824e-01,   -2.290784e-01,    9.708571e-01
     839,   -3.159507e-02,   -3.235464e-01,    9.463626e-01
     840,   -2.072210e-01,    2.788484e-02,    4.079390e+00
     841,    2.186706e-01,   -1.945480e-01,    2.388136e+00
     842,   -2.793220e-01,    3.261300e-01,   -6.817479e-01
     843,   -1.929683e-01,    3.511992e-01,   -3.259772e-01
     844,    1.297142e-01,   -3.917375e-01,   -4.983851e-01
     845,    1.707489e-01,   -6.157466e-02,    4.138120e+00
     846,    1.485863e-01,   -1.090679e-01,    3.963523e+00
     847,   -2.282305e-03,   -1.252858e-01,    4.859692e+00
     848,    1.096036e-01,   -9.477930e-02,    4.930380e+00
     849,   -4.660818e-02,   -9.895128e-02,    4.809545e+00
     850,   -2.322441e-01,    2.066053e-02,    3.236118e+00
     851,   -1.819902e-01,   -1.175543e-01,    3.348278e+00
     852,   -1.793953e-01,    1.429138e-01,    3.162952e+00
     853,    9.515171e-02,   -2.231717e-01,    2.829371e+00
     854,    2.032994e-01,   -1.529152e-01,    2.913290e+00
     855,   -1.901906e-01,   -1.153656e-01,    3.117444e+00
     856,    5.166205e-01,   -1.742484e-01,   -3.376881e+00
     857,   -2.194224e-01,   -1.991310e-02,    2.618378e+00
     858,    3.119504e-02,    3.304059e-01,    1.297115e+00
     859,   -2.296012e-01,   -2.266936e-01,    1.292929e+00
     860,    2.520240e-01,   -1.683747e-01,    1.288794e+00
     861,    2.524380e-01,    2.179155e-01,    1.256647e+00
     862,   -3.868454e-01,    4.651534e-02,   -7.391554e-02
     863,   -1.692536e-01,    8.991970e-02,    3.879427e+00
     864,   -6.239420e-02,    1.778731e-01,    3.997925e+00
     865,   -3.117124e-01,    2.597936e-01,    1.003950e-01
     866,   -1.284604e-01,   -7.260422e-02,    3.922550e+00
     867,    5.232798e-02,    1.200621e-01,    4.846324e+00
     868,   -4.291796e-02,    1.149645e-01,    4.928731e+00
     869,   -6.993315e-02,    1.276815e-01,    4.807090e+00
     870,   -1.043533e-01,    9.057542e-02,    4.876849e+00
     871,    2.425246e-01,   -1.825596e-01,    1.539311e+00
     872,   -3.033309e-01,    8.187752e-02,    4.113983e-01
     873,   -3.471330e-01,    7.401958e-02,    6.641035e-01
     874,    3.634090e-01,    6.059887e-02,    7.231691e-01
     875,    2.134638e-01,    3.455448e-01,   -1.631882e+00
     876,    4.142876e-01,    3.125422e-01,   -1.525819e+00
     877,    1.999952e-01,    4.144938e-01,   -1.309371e+00
     878,   -2.557062e-01,   -2.894137e-01,    2.862171e-01
     879,   -1.538267e-02,   -5.023478e-03,   -6.280991e-01
     880,    6.622521e-02,   -2.961013e-01,   -2.164064e-01
     881,   -2.341389e-01,   -3.158629e-01,   -1.289016e-01
     882,   -3.928353e-01,   -2.419230e-01,   -1.188257e+00
     883,    1.286013e-01,   -8.390873e-03,    4.930210e+00
     884,    3.565164e-01,   -2.394389e-01,   -3.653443e-01
     885,   -1.541384e-01,   -1.050117e-01,    3.652637e+00
     886,    4.775841e-01,   -1.746887e-01,   -2.015254e+00
     887,   -4.558833e-04,   -6.199624e-02,   -1.888451e+00
     888,    3.144027e-01,    3.211008e-01,   -1.923075e+00
     889,    4.566751e-01,    1.216413e-01,   -2.122670e+00
     890,    4.482032e-01,   -5.322960e-02,   -1.659755e+00
     891,   -1.856890e-01,   -4.198183e-01,   -1.730568e+00
     892,    3.523905e-01,   -3.013632e-01,   -2.460499e+00
     893,   -4.329130e-02,    2.170922e-01,    5.127216e-01
     894,   -2.433309e-01,    2.776088e-01,    5.277802e-01
     895,    1.392524e-01,    3.362865e-01,    5.630307e-01
     896,   -2.501397e-01,   -1.392075e-02,    2.776310e+00
     897,   -1.853558e-01,    1.396154e-01,    2.688770e+00
     898,   -2.052671e-01,    1.441193e-01,    2.859575e+00
     899,   -1.801413e-01,   -1.693263e-01,    2.818292e+00
     900,    1.095213e-01,    8.441754e-02,    4.638158e+00
     901,    1.624548e-01,    2.920272e-02,    4.565894e+00
     902,    8.128447e-02,    1.206768e-01,    4.484216e+00
     903,   -3.229494e-02,   -5.281801e-01,   -2.696697e+00
     904,    8.983409e-02,    2.248803e-01,    1.754097e+00
     905,    1.434387e-01,    2.508758e-01,    1.488409e+00
     906,   -1.133272e-01,    2.845642e-01,    1.684699e+00
     907,    1.311566e-01,   -8.324333e-02,    4.329443e+00
     908,   -1.245350e-01,    7.820371e-02,    4.623654e+00
     909,   -1.345347e-02,    1.367095e-01,    4.617107e+00
     910,   -1.100859e-02,    1.313784e-01,    4.728066e+00
     911,    2.533375e-01,   -1.283675e-01,    1.757134e+00
     912,   -9.518597e-02,    3.729028e-01,   -1.006127e+00
     913,   -1.498629e-01,    1.339029e-01,    3.469196e+00
     914,    3.205173e-02,    1.957523e-01,    3.565349e+00
     915,    1.484496e-02,    2.569944e-01,    2.811589e+00
     916,    1.130044e-01,    2.446525e-01,    2.713640e+00
     917,   -7.955652e-02,    1.977174e-01,    2.837456e+00
     918,   -1.301697e-01,   -2.073809e-02,    4.781107e+00
     919,   -1.544084e-01,    2.767082e-02,    4.931110e+00
     920,   -2.137658e-01,    1.778201e-02,    3.389592e+00
     921,   -2.568559e-01,    4.347171e-01,   -2.523646e+00
     922,   -2.747569e-01,    8.204400e-02,    1.962268e+00
     923,   -2.038816e-02,   -1.467255e-01,    4.493131e+00
     924,    2.271991e-01,   -3.441736e-03,    3.359256e+00
     925,   -5.083743e-01,   -7.741034e-02,   -1.835966e+00
     926,   -1.837186e-01,   -4.511573e-01,   -2.035024e+00
     927,   -3.208534e-01,   -2.874309e-01,   -6.885733e-01
     928,    3.111231e-01,   -4.458163e-01,   -3.351200e+00
     929,   -4.332677e-01,    2.854586e-02,   -6.791127e-01
     930,   -2.269167e-01,   -3.384225e-01,   -3.948227e-01
     931,   -2.689042e-01,   -2.255576e-01,    1.006121e+00
     932,    2.694664e-02,    1.643261e-01,    4.405144e+00
     933,    1.040538e-01,    8.432150e-02,    4.749386e+00
     934,    4.173866e-01,   -1.250424e-01,   -5.864579e-01
     935,    4.632818e-01,   -7.435558e-03,   -1.248087e+00
     936,    3.873111e-01,   -3.096588e-01,   -1.584587e+00
     937,   -1.510198e-01,    7.588756e-02,    3.621787e+00
     938,    1.903066e-01,   -4.246313e-01,   -1.313921e+00
     939,    1.140419e-01,   -4.659986e-01,   -4.508893e+00
     940,   -5.112656e-01,   -2.781907e-01,   -3.586991e+00
     941,   -3.813844e-01,   -6.553197e-02,    5.544645e-01
     942,   -2.356861e-01,   -1.413230e-01,    2.582831e+00
     943,   -1.137991e-01,    5.398261e-02,    4.730641e+00
     944,    2.611635e-01,   -2.156664e-02,    2.823516e+00
     945,    3.926426e-01,   -2.005667e-02,    4.533857e-01
**
********************************** E L E M E N T S ****************************
*ELEMENT, TYPE=C3D4, ELSET=EB1
       1,     572,     573,     574,     575
       2,     572,     575,     576,     577
       3,     256,     578,     393,     579
       4,     576,     581,     580,     582
       5,     575,     576,     583,     584
       6,     574,     575,     580,     582
       7,     575,     576,     582,     585
       8,     574,     585,     582,     586
       9,     587,     588,     589,     590
      10,     580,     591,     582,     592
      11,     491,     586,     493,     591
      12,     439,     586,     491,     592
      13,     574,     586,     582,     591
      14,     281,     370,     369,     593
      15,     493,     586,     574,     591
      16,     594,     595,     596,     597
      17,     597,     599,     598,     600
      18,     597,     599,     600,     601
      19,     597,     602,     600,     603
      20,     597,     601,     600,     604
      21,     605,     606,     607,     608
      22,     608,     610,     609,     611
      23,     605,     608,     607,     609
      24,     608,     613,     612,     614
      25,     608,     613,     610,     615
      26,     611,     612,     616,     617
      27,     608,     615,     610,     616
      28,     606,     612,     611,     617
      29,     607,     613,     608,     614
      30,     614,     619,     618,     620
      31,     612,     614,     613,     621
      32,     606,     614,     612,     621
      33,     613,     621,     614,     622
      34,     623,     624,     625,     626
      35,     624,     627,     626,     628
      36,     624,     625,     626,     629
      37,     389,     630,     456,     631
      38,     588,     626,     627,     632
      39,     587,     624,     629,     633
      40,     587,     624,     588,     626
      41,     587,     629,     626,     634
      42,     201,     283,     281,     635
      43,     587,     626,     588,     632
      44,     620,     637,     636,     638
      45,     620,     637,     638,     639
      46,     638,     641,     640,     642
      47,     620,     639,     638,     643
      48,     621,     638,     622,     644
      49,     614,     620,     618,     638
      50,     618,     620,     636,     638
      51,     645,     646,     647,     648
      52,     622,     640,     638,     641
      53,     585,     586,     649,     650
      54,     585,     651,     649,     652
      55,      43,      99,     134,     653
      56,      25,     645,     647,     648
      57,     606,     643,     621,     654
      58,     585,     655,     652,     656
      59,     585,     652,     655,     657
      60,     209,     210,     274,     658
      61,     585,     651,     652,     657
      62,     659,     660,     661,     662
      63,     662,     664,     663,     665
      64,     659,     660,     662,     664
      65,     614,     618,     622,     638
      66,     662,     664,     665,     666
      67,     662,     667,     665,     668
      68,     662,     666,     665,     667
      69,      76,     669,     670,     671
      70,     246,     564,      10,     671
      71,     563,     564,     669,     671
      72,     280,     672,     661,     673
      73,      76,      77,     669,     671
      74,      77,     563,     669,     671
      75,     652,     675,     674,     676
      76,     676,     678,     677,     679
      77,     611,     680,     676,     681
      78,     652,     678,     676,     679
      79,     676,     679,     681,     682
      80,     611,     676,     677,     679
      81,     642,     665,     683,     684
      82,     642,     685,     684,     686
      83,     642,     665,     684,     685
      84,     653,     665,     664,     666
      85,     199,     319,     284,     687
      86,     642,     665,     685,     688
      87,     653,     685,     665,     688
      88,     635,     684,     653,     686
      89,     335,     689,     690,     691
      90,     335,     690,     689,     692
      91,     576,     583,     693,     694
      92,     575,     583,     576,     694
      93,     576,     577,     694,     695
      94,     575,     577,     692,     694
      95,     660,     661,     672,     673
      96,     279,     673,     696,     697
      97,     204,     279,     673,     696
      98,     279,     372,     673,     698
      99,     372,     672,     673,     698
     100,     699,     700,     701,     702
     101,     702,     704,     703,     705
     102,     612,     613,     615,     621
     103,     706,     707,     708,     709
     104,     707,     708,     709,     710
     105,     706,     711,     712,     713
     106,     705,     713,     714,     715
     107,     705,     713,     712,     714
     108,     499,     621,     622,     644
     109,     548,     612,     615,     621
     110,     476,     621,     547,     644
     111,     606,     614,     620,     716
     112,     614,     622,     621,     638
     113,     607,     619,     614,     716
     114,     614,     638,     621,     643
     115,     613,     615,     621,     622
     116,     209,     277,     206,     717
     117,     658,     718,     719,     720
     118,     720,     722,     721,     723
     119,     720,     725,     724,     726
     120,     283,     367,     370,     727
     121,       4,     647,     569,     648
     122,     720,     723,     724,     725
     123,     718,     720,     721,     728
     124,     719,     720,     729,     730
     125,     462,     621,     476,     644
     126,     720,     731,     722,     732
     127,     606,     639,     620,     643
     128,     618,     620,     619,     637
     129,     614,     620,     638,     643
     130,     421,     733,     734,     735
     131,     606,     620,     639,     716
     132,     620,     639,     716,     736
     133,     606,     716,     639,     737
     134,     738,     739,     740,     741
     135,     742,     743,     744,     745
     136,     742,     745,     744,     746
     137,     738,     745,     747,     748
     138,     741,     745,     742,     749
     139,     708,     750,     709,     751
     140,     669,     752,     751,     753
     141,     751,     753,     752,     754
     142,     709,     755,     751,     756
     143,     480,     714,     715,     757
     144,     693,     759,     758,     760
     145,     761,     762,     763,     764
     146,     763,     764,     765,     766
     147,     763,     765,     764,     767
     148,     763,     767,     764,     768
     149,     632,     763,     769,     770
     150,     693,     764,     759,     771
     151,      35,     127,     126,     772
     152,      87,     599,     220,     773
     153,     598,     600,     599,     774
     154,     597,     600,     598,     603
     155,     597,     598,     599,     775
     156,     596,     598,     597,     775
     157,     220,     599,     601,     773
     158,     599,     600,     601,     773
     159,     776,     777,     778,     779
     160,     595,     596,     779,     780
     161,     776,     779,     781,     782
     162,     779,     781,     782,     783
     163,     779,     785,     784,     786
     164,     777,     779,     784,     786
     165,     595,     781,     779,     787
     166,     339,     458,     384,     740
     167,     779,     781,     783,     787
     168,     572,     576,     575,     585
     169,     575,     576,     577,     694
     170,     575,     692,     583,     694
     171,     576,     580,     581,     584
     172,     576,     581,     582,     788
     173,     582,     592,     650,     789
     174,     580,     582,     581,     789
     175,      25,     647,       4,     648
     176,     575,     576,     580,     582
     177,     627,     632,     790,     791
     178,     719,     720,     728,     729
     179,     514,     719,     729,     730
     180,     419,     422,     719,     728
     181,     718,     728,     721,     792
     182,     718,     719,     720,     728
     183,     515,     537,     728,     792
     184,     514,     537,     721,     728
     185,     623,     628,     626,     790
     186,     624,     625,     629,     793
     187,     624,     794,     702,     795
     188,     624,     627,     628,     699
     189,     588,     626,     624,     627
     190,      59,     153,     154,     796
     191,      28,     121,     595,     781
     192,     595,     776,     779,     781
     193,     596,     785,     779,     797
     194,     777,     779,     782,     783
     195,      72,     776,     233,     781
     196,      28,     782,     781,     783
     197,     798,     799,     800,     801
     198,     645,     801,     802,     803
     199,     777,     801,     803,     804
     200,     801,     802,     805,     806
     201,     801,     806,     807,     808
     202,     799,     801,     807,     808
     203,     777,     801,     778,     809
     204,     777,     799,     801,     809
     205,     762,     763,     768,     810
     206,     632,     766,     634,     769
     207,     165,     199,     639,     687
     208,     165,     319,     687,     811
     209,     638,     643,     687,     812
     210,     319,     687,     643,     812
     211,     366,     686,     687,     812
     212,     319,     366,     687,     812
     213,     578,     779,     777,     786
     214,     777,     779,     783,     784
     215,     481,     555,     629,     634
     216,     432,     431,     501,     636
     217,     777,     786,     784,     813
     218,      88,     814,     742,     815
     219,     742,     814,     746,     815
     220,     219,     218,     815,     816
     221,     746,     815,     816,     817
     222,     218,     746,     814,     815
     223,      32,     815,     742,     817
     224,     124,     815,      32,     817
     225,     154,     710,     818,     819
     226,     154,     710,     796,     818
     227,      58,     796,     820,     821
     228,     153,     159,     796,     818
     229,      58,     796,      59,     820
     230,      59,     154,     710,     796
     231,     742,     746,     744,     817
     232,     418,     416,     792,     822
     233,     538,     792,     823,     824
     234,     538,     721,     792,     824
     235,      25,     648,      69,     803
     236,     718,     792,     721,     824
     237,     538,     721,     537,     792
     238,     718,     822,     792,     824
     239,     514,     728,     721,     729
     240,     419,     718,     418,     728
     241,     606,     607,     608,     614
     242,      99,     199,     198,     685
     243,     606,     611,     737,     825
     244,     697,     826,     827,     828
     245,     827,     828,     829,     830
     246,     829,     831,     830,     832
     247,     660,     673,     828,     833
     248,     660,     828,     832,     834
     249,     697,     826,     828,     833
     250,     660,     673,     672,     830
     251,     826,     828,     835,     836
     252,     826,     836,     835,     837
     253,      45,     139,     136,     639
     254,     826,     828,     834,     835
     255,     461,     476,     503,     644
     256,     724,     733,     826,     837
     257,     735,     838,     836,     839
     258,     734,     735,     836,     839
     259,     461,     640,     643,     644
     260,     589,     627,     699,     840
     261,      57,     151,     589,     840
     262,     645,     801,     646,     802
     263,      57,     151,     152,     589
     264,      56,     627,     588,     840
     265,     497,     612,     621,     841
     266,      56,     588,     151,     840
     267,     213,     842,     271,     843
     268,     588,     627,     589,     840
     269,     339,     379,     457,     844
     270,     446,     790,     845,     846
     271,     634,     845,     790,     846
     272,     632,     634,     790,     846
     273,     446,     447,     790,     846
     274,     161,     326,     160,     590
     275,     484,     634,     556,     846
     276,     483,     556,     769,     846
     277,      77,     228,     669,     847
     278,      77,     669,      79,     847
     279,     503,     546,     640,     644
     280,      79,     752,     226,     847
     281,     381,     416,     418,     822
     282,     669,     847,     752,     848
     283,     669,     752,     847,     849
     284,     226,     756,     227,     847
     285,     576,     850,     585,     851
     286,     585,     788,     650,     852
     287,     463,     680,     853,     854
     288,     645,     647,     646,     800
     289,     586,     649,     592,     678
     290,     585,     657,     655,     855
     291,     652,     657,     679,     682
     292,     655,     682,     676,     853
     293,     649,     678,     652,     679
     294,     578,     778,     777,     779
     295,     776,     777,     782,     804
     296,     578,     779,     786,     856
     297,      21,     648,     570,     802
     298,      21,     119,     118,     802
     299,     645,     802,     648,     803
     300,     645,     646,     648,     802
     301,     570,     648,     646,     802
     302,     611,     617,     616,     680
     303,     570,     802,     646,     806
     304,     646,     806,     801,     808
     305,     119,     171,     802,     805
     306,     611,     681,     679,     857
     307,     463,     680,     464,     853
     308,     611,     617,     680,     681
     309,     611,     825,     681,     857
     310,     660,     661,     662,     858
     311,     484,     845,     634,     846
     312,     659,     832,     664,     859
     313,     659,     664,     662,     666
     314,     660,     830,     831,     832
     315,     660,     664,     832,     860
     316,     660,     832,     831,     860
     317,     660,     831,     663,     860
     318,     660,     672,     858,     861
     319,     658,     726,     717,     731
     320,     718,     721,     720,     722
     321,     658,     718,     722,     843
     322,     722,     732,     731,     862
     323,     149,     767,     177,     863
     324,     112,     176,     588,     863
     325,     176,     588,     863,     864
     326,      93,     209,     130,     865
     327,     177,     765,     304,     864
     328,     177,     863,     765,     864
     329,     763,     863,     768,     866
     330,     632,     763,     765,     766
     331,      56,     863,     588,     866
     332,     177,     765,     767,     771
     333,     177,     767,     765,     863
     334,     587,     624,     626,     629
     335,     669,     752,     753,     848
     336,     228,     669,     847,     849
     337,     228,     670,     669,     849
     338,      11,     563,      77,     671
     339,     416,     415,     519,     747
     340,      77,     563,      79,     669
     341,      77,      12,      79,     563
     342,      68,     237,     867,     868
     343,       8,       7,     561,     868
     344,      68,     753,     561,     868
     345,       7,      68,     561,     868
     346,     753,     868,     867,     869
     347,     562,     868,     753,     870
     348,     659,     660,     664,     832
     349,     660,     663,     664,     860
     350,     653,     666,     664,     859
     351,     635,     860,     664,     871
     352,     726,     835,     826,     872
     353,     826,     835,     834,     873
     354,     697,     826,     833,     873
     355,     730,     827,     826,     874
     356,      57,      63,     150,     699
     357,     734,     836,     835,     839
     358,     697,     827,     698,     828
     359,     826,     827,     829,     874
     360,     744,     876,     875,     877
     361,     725,     837,     726,     878
     362,      92,     211,     732,     878
     363,     722,     772,     843,     879
     364,     720,     726,     731,     732
     365,     211,     725,     732,     878
     366,      92,     732,     731,     878
     367,     722,     880,     725,     881
     368,     125,     168,     817,     882
     369,     246,      76,     670,     671
     370,     752,     753,     848,     883
     371,     518,     519,     536,     823
     372,     113,     848,      14,     883
     373,     497,     498,     548,     612
     374,     113,     752,      80,     848
     375,     113,     225,      80,     752
     376,      79,     752,     847,     848
     377,      79,      80,     226,     752
     378,      13,      80,      79,     848
     379,     336,     464,     617,     853
     380,      14,     848,     565,     883
     381,       5,     560,      71,     883
     382,       1,     560,       5,     883
     383,      71,     753,     754,     883
     384,     113,     147,     754,     883
     385,     113,     147,     175,     754
     386,     752,     754,     753,     883
     387,     457,     458,     844,     884
     388,     457,     844,     880,     884
     389,     417,     723,     516,     884
     390,     457,     880,     417,     884
     391,     721,     880,     824,     884
     392,     516,     723,     721,     884
     393,     538,     721,     824,     884
     394,     336,     617,     681,     853
     395,     693,     762,     764,     885
     396,     762,     763,     764,     768
     397,     762,     810,     768,     885
     398,     691,     770,     762,     810
     399,     324,     691,     762,     810
     400,       4,     569,      20,     648
     401,     600,     631,     886,     887
     402,     600,     773,     774,     887
     403,     600,     601,     887,     888
     404,     600,     887,     886,     889
     405,     816,     875,     887,     888
     406,     744,     887,     875,     890
     407,      55,     767,     149,     863
     408,     744,     817,     887,     891
     409,     594,     597,     596,     797
     410,     597,     600,     602,     604
     411,     464,     475,     616,     680
     412,     598,     600,     631,     892
     413,     270,     268,     385,     746
     414,     596,     602,     603,     785
     415,     705,     820,     818,     821
     416,     598,     603,     600,     892
     417,     602,     603,     785,     892
     418,     697,     827,     826,     893
     419,     213,      91,     214,     842
     420,     717,     872,     726,     893
     421,     726,     872,     826,     893
     422,     415,     413,     522,     748
     423,     278,     893,     697,     894
     424,     697,     827,     893,     895
     425,     278,     697,     893,     895
     426,      57,     150,      56,     840
     427,     717,     726,     719,     730
     428,     464,     475,     498,     616
     429,     679,     897,     896,     898
     430,     657,     896,     679,     899
     431,     651,     679,     657,     896
     432,     747,     823,     822,     879
     433,     711,     713,     900,     901
     434,     395,     406,     394,     900
     435,     406,     450,     901,     902
     436,      15,      78,      65,     566
     437,     450,     714,     451,     901
     438,     390,     451,     714,     901
     439,     713,     900,     901,     902
     440,     578,     778,     779,     780
     441,     596,     787,     784,     903
     442,     596,     785,     603,     903
     443,     642,     683,     665,     904
     444,     469,     793,     471,     795
     445,     662,     668,     665,     905
     446,     665,     668,     667,     906
     447,     624,     699,     628,     702
     448,     531,     558,     625,     845
     449,     403,     625,     623,     703
     450,     702,     705,     703,     907
     451,     709,     711,     755,     756
     452,     708,     709,     710,     908
     453,     709,     900,     909,     910
     454,     640,     812,     642,     911
     455,      88,     218,     814,     815
     456,     217,     218,     746,     814
     457,      33,     749,     742,     814
     458,      88,      33,     742,     814
     459,     742,     814,     749,     912
     460,      90,     749,     814,     842
     461,     742,     746,     814,     912
     462,     214,     814,     217,     912
     463,      90,     814,     214,     842
     464,     576,     584,     581,     693
     465,     576,     693,     581,     913
     466,     576,     695,     693,     913
     467,     693,     759,     760,     914
     468,     576,     583,     584,     693
     469,     583,     693,     758,     760
     470,     609,     915,     677,     916
     471,     609,     677,     915,     917
     472,     291,     609,     359,     916
     473,     438,     677,     915,     916
     474,     291,     915,     609,     916
     475,     469,     633,     793,     795
     476,     436,     610,     496,     677
     477,     608,     612,     613,     615
     478,     433,     615,     613,     622
     479,     433,     435,     613,     615
     480,     433,     499,     615,     622
     481,     499,     621,     615,     622
     482,     186,     187,     294,     649
     483,     496,     548,     612,     615
     484,     117,     670,     849,     918
     485,      76,     228,     117,     670
     486,      62,     670,     870,     919
     487,     562,     753,     670,     870
     488,     751,     753,     869,     870
     489,     564,     670,     669,     671
     490,     562,     870,     670,     919
     491,     561,     753,     562,     868
     492,     137,     868,     562,     870
     493,       9,     245,     137,     870
     494,     156,     869,     238,     870
     495,     562,     670,     564,     919
     496,      67,     238,     869,     870
     497,      67,     237,     868,     869
     498,       8,     562,     137,     868
     499,     612,     654,     621,     841
     500,     499,     548,     615,     621
     501,     434,     462,     654,     841
     502,     462,     621,     654,     841
     503,      53,      52,     109,     920
     504,     498,     617,     612,     841
     505,     464,     616,     498,     617
     506,     434,     464,     498,     617
     507,     434,     654,     617,     841
     508,     658,     862,     731,     865
     509,      37,     862,      93,     865
     510,     210,     862,     658,     865
     511,     209,     210,     658,     865
     512,      37,     130,     731,     865
     513,      37,     731,     862,     865
     514,     658,     731,     717,     865
     515,     209,     717,     206,     865
     516,     717,     865,     731,     872
     517,     596,     603,     598,     903
     518,      66,     598,     240,     787
     519,     388,     594,     604,     921
     520,     169,     594,     310,     921
     521,     122,     595,     169,     921
     522,     501,     546,     622,     641
     523,     501,     622,     636,     641
     524,     546,     640,     622,     641
     525,     461,     643,     640,     812
     526,     572,     577,     576,     851
     527,     637,     642,     639,     922
     528,     636,     641,     638,     642
     529,     545,     640,     546,     641
     530,     403,     703,     452,     907
     531,     403,     452,     559,     907
     532,     402,     623,     701,     703
     533,     307,     342,     703,     923
     534,     452,     703,     757,     907
     535,     342,     452,     703,     712
     536,     342,     712,     703,     923
     537,     307,     703,     704,     923
     538,     487,     580,     488,     924
     539,     489,     689,     583,     692
     540,     490,     591,     574,     924
     541,     689,     690,     691,     762
     542,     487,     553,     583,     924
     543,     574,     575,     692,     924
     544,     489,     490,     574,     924
     545,     595,     596,     775,     787
     546,      31,     774,     773,     925
     547,     594,     596,     780,     797
     548,      66,     239,     598,     774
     549,     221,     925,     891,     926
     550,      30,     122,     599,     775
     551,      29,      66,      84,     787
     552,     240,     598,     249,     903
     553,     239,     598,     774,     926
     554,      98,     659,     661,     666
     555,      43,     666,     135,     667
     556,     635,     653,     664,     859
     557,      97,     666,     134,     859
     558,      42,      98,     135,     666
     559,      41,      97,     659,     666
     560,     661,     668,     662,     858
     561,     662,     663,     861,     905
     562,      98,     135,     666,     667
     563,      41,     659,      98,     666
     564,     286,     364,     636,     904
     565,     287,     286,     364,     636
     566,     606,     737,     639,     811
     567,     287,     636,     618,     637
     568,     286,     904,     637,     906
     569,     636,     642,     637,     904
     570,     197,     196,     688,     906
     571,     637,     904,     688,     906
     572,     100,     688,     196,     922
     573,     620,     637,     639,     736
     574,     272,     725,     380,     880
     575,     126,     167,     215,     927
     576,     726,     731,     732,     878
     577,     208,     837,     275,     878
     578,     776,     779,     778,     780
     579,     578,     777,     778,     809
     580,     785,     786,     856,     928
     581,     399,     785,     404,     856
     582,     404,     785,     797,     856
     583,     777,     803,     782,     804
     584,     635,     684,     727,     871
     585,     663,     665,     664,     684
     586,     199,     284,     685,     687
     587,     367,     429,     727,     812
     588,     319,     643,     337,     812
     589,     337,     643,     461,     812
     590,     642,     685,     686,     687
     591,     462,     621,     643,     654
     592,     462,     497,     621,     841
     593,     289,     654,     318,     825
     594,     360,     462,     643,     654
     595,     606,     643,     654,     811
     596,     318,     654,     811,     825
     597,     289,     361,     654,     825
     598,     361,     617,     434,     654
     599,     740,     844,     879,     927
     600,     745,     747,     748,     912
     601,     128,     842,     772,     929
     602,      90,      91,     749,     842
     603,     214,     842,     814,     912
     604,     127,     927,     772,     930
     605,     213,     128,     842,     843
     606,     214,     271,     842,     912
     607,      97,     859,     202,     931
     608,     683,     684,     871,     911
     609,     134,     653,     201,     859
     610,     659,     832,     859,     931
     611,     134,     666,     653,     859
     612,     331,     902,     819,     932
     613,     327,     794,     332,     932
     614,     331,     470,     902,     932
     615,     624,     702,     794,     821
     616,     589,     624,     633,     794
     617,     705,     714,     712,     757
     618,     403,     530,     623,     625
     619,     421,     512,     724,     733
     620,     243,     699,     700,     701
     621,      25,       4,      20,     648
     622,     624,     702,     625,     793
     623,     531,     625,     629,     845
     624,     702,     793,     705,     907
     625,     709,     900,     910,     933
     626,     391,     392,     706,     712
     627,     261,     706,     750,     756
     628,     308,     707,     706,     923
     629,     173,     260,     706,     750
     630,     173,     706,     308,     707
     631,     392,     706,     712,     923
     632,     508,     543,     663,     831
     633,     508,     831,     663,     861
     634,     508,     663,     505,     861
     635,     505,     861,     663,     905
     636,     593,     832,     664,     860
     637,     136,     165,     199,     639
     638,     425,     672,     830,     861
     639,     200,     668,     285,     906
     640,     546,     622,     640,     644
     641,     640,     642,     641,     911
     642,     622,     638,     640,     644
     643,     462,     643,     621,     644
     644,     639,     687,     643,     811
     645,     637,     639,     736,     922
     646,     429,     461,     640,     812
     647,      55,     111,     768,     866
     648,      56,     588,     627,     866
     649,     150,     244,     178,     627
     650,     302,     347,     770,     791
     651,     763,     765,     767,     863
     652,     758,     762,     761,     764
     653,     148,     768,     162,     885
     654,     763,     810,     770,     866
     655,     721,     722,     824,     880
     656,     738,     879,     740,     934
     657,      91,     749,     842,     929
     658,     722,     862,     772,     881
     659,     824,     879,     844,     880
     660,      89,     749,     126,     927
     661,     215,     741,     882,     927
     662,     844,     880,     879,     930
     663,     822,     843,     842,     879
     664,     332,     794,     633,     795
     665,     127,     212,     167,     930
     666,     314,     315,     339,     844
     667,      44,     639,     136,     685
     668,     641,     683,     642,     904
     669,      43,      44,     685,     688
     670,      43,      44,      99,     685
     671,     665,     667,     688,     906
     672,     653,     665,     667,     688
     673,     197,     688,     667,     906
     674,     637,     638,     639,     642
     675,     665,     688,     904,     906
     676,      43,     653,     667,     688
     677,     100,     667,     197,     688
     678,     636,     641,     642,     904
     679,     201,     283,     635,     653
     680,     284,     686,     685,     687
     681,     593,     859,     832,     931
     682,     426,     593,     635,     860
     683,     281,     370,     593,     635
     684,     283,     635,     653,     686
     685,     684,     727,     871,     911
     686,     258,     809,     799,     813
     687,     231,     807,     232,     808
     688,      73,     232,     806,     808
     689,      13,      79,      12,     565
     690,      73,     120,     571,     806
     691,      73,     806,     571,     808
     692,      73,     571,      85,     808
     693,     362,     433,     435,     613
     694,     645,     798,     800,     801
     695,     159,     794,     327,     818
     696,     570,     646,     571,     806
     697,     566,     571,     646,     808
     698,     114,     174,     704,     820
     699,     301,     247,     623,     628
     700,      63,     699,      58,     700
     701,     744,     816,     875,     887
     702,     742,     815,     746,     817
     703,     125,     817,     742,     882
     704,     630,     743,     744,     891
     705,     217,     814,     746,     912
     706,      32,      88,     742,     815
     707,     216,     741,     743,     882
     708,      32,     742,     125,     817
     709,     431,     641,     636,     904
     710,     663,     665,     683,     905
     711,     545,     503,     640,     911
     712,     606,     608,     612,     614
     713,     638,     643,     639,     687
     714,     544,     545,     683,     911
     715,     431,     501,     636,     641
     716,     374,     717,     719,     895
     717,     206,     717,     278,     894
     718,     209,     658,     277,     717
     719,     530,     558,     625,     907
     720,     701,     703,     702,     704
     721,     704,     705,     707,     923
     722,     702,     820,     705,     821
     723,     623,     624,     626,     628
     724,     470,     469,     471,     795
     725,     626,     632,     634,     790
     726,     480,     793,     558,     907
     727,     472,     531,     471,     793
     728,     573,     574,     575,     692
     729,     295,     572,     573,     656
     730,     295,     573,     353,     656
     731,     322,     573,     577,     690
     732,     352,     441,     573,     692
     733,      50,     850,     143,     855
     734,     572,     851,     585,     855
     735,     576,     788,     850,     920
     736,     429,     640,     503,     911
     737,     108,     850,     788,     920
     738,     144,     108,     850,     852
     739,     596,     779,     780,     797
     740,      22,     571,     120,     806
     741,      22,     119,     570,     806
     742,     778,     801,     804,     805
     743,     571,     806,     646,     808
     744,     777,     799,     798,     801
     745,     170,     778,     252,     805
     746,      20,      21,     118,     648
     747,     569,     647,     646,     648
     748,     171,     803,     802,     805
     749,     778,     801,     805,     807
     750,     235,     782,     803,     804
     751,     235,     803,     171,     805
     752,      64,     647,      81,     800
     753,      26,     782,     645,     803
     754,      25,      26,     645,     803
     755,      58,     820,     700,     821
     756,     498,     549,     548,     616
     757,     589,     627,     624,     699
     758,     623,     624,     628,     702
     759,     301,     623,     401,     790
     760,     452,     703,     712,     757
     761,     707,     710,     713,     820
     762,     477,     831,     829,     838
     763,     426,     459,     593,     860
     764,     709,     713,     710,     819
     765,     201,     635,     281,     859
     766,      19,     569,       4,     647
     767,     426,     860,     635,     871
     768,     507,     663,     506,     860
     769,     426,     507,     860,     871
     770,     506,     663,     831,     860
     771,     159,     327,     328,     819
     772,     593,     664,     635,     860
     773,     153,     794,     818,     821
     774,     660,     662,     663,     861
     775,     124,     773,     815,     817
     776,     123,     817,     168,     891
     777,     389,     630,     631,     926
     778,      86,     774,     925,     926
     779,     327,     818,     794,     932
     780,     124,     817,      32,     925
     781,      32,     817,     123,     925
     782,     705,     715,     795,     818
     783,     398,     598,     892,     903
     784,     745,     747,     842,     879
     785,     744,     748,     745,     935
     786,     518,     538,     792,     823
     787,     738,     739,     741,     745
     788,     458,     740,     844,     934
     789,     742,     817,     743,     882
     790,     824,     844,     879,     934
     791,     741,     879,     749,     927
     792,     822,     823,     824,     879
     793,      73,     231,     232,     808
     794,     416,     518,     792,     823
     795,     519,     747,     738,     823
     796,     749,     927,     879,     929
     797,     340,     456,     630,     936
     798,     630,     890,     744,     936
     799,     887,     891,     925,     926
     800,     313,     891,     389,     926
     801,     313,     340,     389,     891
     802,     653,     684,     665,     685
     803,     197,     285,     286,     906
     804,     287,     618,     619,     637
     805,      22,     570,     571,     806
     806,     606,     607,     614,     716
     807,     608,     612,     615,     616
     808,     288,     290,     607,     613
     809,     606,     737,     811,     825
     810,     638,     643,     640,     644
     811,     622,     638,     636,     641
     812,     764,     767,     771,     937
     813,      64,      19,      81,     647
     814,     466,     483,     761,     770
     815,     576,     694,     693,     695
     816,     764,     767,     765,     771
     817,      62,     870,     670,     918
     818,     473,     758,     689,     761
     819,     485,     482,     766,     769
     820,     759,     766,     764,     769
     821,     340,     743,     630,     891
     822,     266,     388,     604,     921
     823,     340,     936,     630,     938
     824,     745,     842,     747,     912
     825,     744,     746,     745,     877
     826,      33,     749,      89,     882
     827,     216,     741,     269,     743
     828,     215,     314,     741,     927
     829,     168,     817,     743,     891
     830,     743,     817,     744,     891
     831,     383,     743,     741,     938
     832,      76,     669,     228,     670
     833,     711,     714,     713,     901
     834,     202,     859,     593,     931
     835,     662,     861,     858,     905
     836,     826,     829,     828,     836
     837,     659,     660,     832,     834
     838,     653,     664,     665,     684
     839,     316,     593,     839,     931
     840,     202,     593,     316,     931
     841,     370,     426,     593,     635
     842,     247,     623,     628,     701
     843,     587,     589,     588,     624
     844,      57,     152,      58,     699
     845,     151,     588,     161,     589
     846,      56,     150,     627,     840
     847,     306,     343,     711,     900
     848,     306,     711,     755,     900
     849,     455,     479,     456,     936
     850,     751,     753,     867,     869
     851,     157,     909,     250,     910
     852,     709,     819,     908,     909
     853,     237,     869,     250,     910
     854,     260,     261,     706,     750
     855,     715,     818,     902,     932
     856,     722,     772,     879,     930
     857,     417,     880,     723,     884
     858,     315,     379,     844,     880
     859,     824,     880,     844,     884
     860,     315,     881,     880,     930
     861,     380,     723,     417,     880
     862,     721,     723,     880,     884
     863,     380,     725,     723,     880
     864,     315,     272,     880,     881
     865,      97,     659,     859,     931
     866,      96,     203,     661,     833
     867,     672,     673,     698,     830
     868,     203,     282,     200,     668
     869,     705,     715,     757,     793
     870,      45,     101,     716,     736
     871,     659,     833,     660,     834
     872,     241,     807,     799,     809
     873,     285,     668,     368,     905
     874,     223,     784,     263,     798
     875,     257,     230,     798,     813
     876,     635,     664,     653,     684
     877,      81,     645,     224,     800
     878,     229,     799,     230,     813
     879,      78,     799,     566,     939
     880,     406,     901,     900,     902
     881,     433,     613,     618,     622
     882,     305,     755,     711,     756
     883,     710,     818,     713,     820
     884,     705,     712,     713,     923
     885,     705,     713,     707,     923
     886,     818,     819,     902,     932
     887,     395,     396,     331,     909
     888,     777,     784,     798,     813
     889,     222,     783,     784,     940
     890,     645,     777,     782,     940
     891,     222,     784,     223,     940
     892,     224,     645,      82,     798
     893,     104,     142,     896,     898
     894,     246,     670,     564,     671
     895,      49,     651,     657,     896
     896,     191,     607,     291,     609
     897,     677,     678,     915,     917
     898,     359,     609,     610,     916
     899,     609,     611,     610,     677
     900,     227,     756,     750,     849
     901,       1,      14,     565,     883
     902,     501,     502,     545,     641
     903,     237,     867,     868,     869
     904,     237,     867,     869,     910
     905,     709,     751,     755,     933
     906,     435,     499,     496,     615
     907,     251,     909,     900,     910
     908,     113,     752,     848,     883
     909,     388,     594,     454,     604
     910,     428,     504,     507,     871
     911,     219,     773,     601,     816
     912,     310,     594,     388,     921
     913,     294,     355,     649,     915
     914,     294,     915,     649,     917
     915,     291,     607,     359,     609
     916,     355,     438,     678,     915
     917,     649,     679,     651,     898
     918,     115,     710,     707,     820
     919,     649,     915,     678,     917
     920,     263,     784,     329,     813
     921,     646,     801,     799,     808
     922,     646,     799,     800,     939
     923,     578,     786,     777,     809
     924,      27,     645,     782,     940
     925,     258,     259,     329,     813
     926,     170,     309,     252,     778
     927,     252,     309,     254,     778
     928,     232,     805,     806,     807
     929,     258,     809,     786,     856
     930,     256,     578,     778,     809
     931,     254,     778,     776,     804
     932,     784,     813,     786,     928
     933,     779,     797,     785,     856
     934,     330,     579,     453,     780
     935,     572,     585,     656,     855
     936,     826,     828,     833,     834
     937,     826,     893,     872,     894
     938,     129,     878,     872,     941
     939,     166,     839,     835,     931
     940,      96,     833,     659,     834
     941,     133,     834,     659,     931
     942,     132,     833,     834,     873
     943,     131,     166,     835,     931
     944,     133,     131,     834,     931
     945,     582,     592,     586,     650
     946,     185,     296,     572,     577
     947,     693,     914,     913,     937
     948,     576,     582,     585,     788
     949,     295,     572,     296,     573
     950,     184,     185,     572,     851
     951,     573,     575,     577,     692
     952,     693,     771,     759,     914
     953,     136,     639,     199,     685
     954,     165,     737,     193,     811
     955,     429,     812,     640,     911
     956,     705,     795,     794,     818
     957,     638,     687,     642,     812
     958,     461,     643,     462,     644
     959,     222,     264,     784,     787
     960,      62,     156,     870,     918
     961,     264,     397,     785,     903
     962,     264,     397,     329,     785
     963,     595,     775,     597,     921
     964,     240,     787,     598,     903
     965,     398,     598,     631,     892
     966,     405,     892,     785,     903
     967,     603,     785,     892,     903
     968,     330,     776,     778,     780
     969,     311,     776,     330,     780
     970,     801,     803,     804,     805
     971,     355,     678,     649,     915
     972,     187,     649,     898,     917
     973,     354,     649,     355,     678
     974,     297,     649,     354,     650
     975,     652,     675,     676,     678
     976,     585,     649,     586,     652
     977,     649,     652,     651,     679
     978,     187,     294,     649,     917
     979,     186,     187,     649,     651
     980,     105,     188,     189,     657
     981,     693,     695,     694,     885
     982,     693,     885,     764,     937
     983,     335,     467,     689,     691
     984,     335,     467,     465,     689
     985,     577,     690,     692,     694
     986,     179,     791,     810,     866
     987,     361,     464,     434,     617
     988,     404,     785,     602,     797
     989,     597,     604,     602,     797
     990,     600,     888,     887,     889
     991,     529,     602,     525,     797
     992,     102,     193,     737,     942
     993,     192,     681,     320,     825
     994,     605,     737,     611,     857
     995,     318,     654,     643,     811
     996,     193,     318,     811,     825
     997,     320,     681,     361,     825
     998,     361,     617,     654,     825
     999,     439,     491,     586,     675
    1000,     572,     585,     574,     656
    1001,     581,     582,     650,     789
    1002,     442,     592,     580,     789
    1003,     439,     491,     442,     592
    1004,     574,     591,     580,     924
    1005,     487,     584,     580,     924
    1006,     585,     851,     850,     855
    1007,     443,     580,     487,     584
    1008,     834,     835,     839,     931
    1009,     659,     834,     832,     931
    1010,     410,     456,     526,     886
    1011,      95,     872,     130,     894
    1012,     130,     865,     206,     894
    1013,     472,     587,     481,     629
    1014,     717,     872,     893,     894
    1015,     130,     872,     865,     894
    1016,     278,     717,     374,     895
    1017,     673,     697,     828,     833
    1018,     279,     673,     697,     698
    1019,     697,     698,     827,     895
    1020,     673,     696,     697,     833
    1021,     734,     835,     836,     837
    1022,      45,     736,     639,     922
    1023,     595,     779,     596,     787
    1024,     397,     405,     785,     903
    1025,     329,     397,     409,     785
    1026,     709,     755,     711,     900
    1027,     343,     900,     394,     901
    1028,     236,     910,     251,     933
    1029,     751,     918,     869,     943
    1030,     290,     359,     607,     613
    1031,     234,     754,     867,     933
    1032,     234,     867,     236,     933
    1033,     574,     580,     575,     924
    1034,     606,     617,     611,     825
    1035,     581,     650,     582,     788
    1036,     572,     573,     575,     577
    1037,     335,     689,     465,     692
    1038,     489,     574,     692,     924
    1039,     690,     694,     695,     885
    1040,     578,     780,     779,     797
    1041,     341,     454,     594,     780
    1042,     311,     341,     594,     780
    1043,     454,     594,     780,     797
    1044,     566,     646,     799,     808
    1045,     101,     195,     716,     736
    1046,     594,     596,     595,     780
    1047,     235,     776,     782,     804
    1048,     366,     429,     367,     812
    1049,     621,     643,     638,     644
    1050,     359,     610,     607,     613
    1051,     676,     681,     680,     853
    1052,     496,     610,     616,     677
    1053,     429,     461,     503,     640
    1054,     496,     548,     549,     616
    1055,     605,     608,     609,     611
    1056,     498,     616,     612,     617
    1057,     475,     616,     680,     944
    1058,     605,     611,     609,     897
    1059,     733,     836,     826,     837
    1060,     202,     281,     593,     859
    1061,     203,     280,     661,     673
    1062,     153,     818,     796,     821
    1063,     697,     826,     873,     894
    1064,     279,     697,     373,     698
    1065,      38,     129,     731,     872
    1066,     826,     834,     833,     873
    1067,     132,     205,     696,     894
    1068,     206,     865,     717,     894
    1069,     835,     873,     872,     941
    1070,      38,     731,     130,     872
    1071,     720,     722,     723,     725
    1072,     720,     726,     724,     730
    1073,     278,     717,     893,     894
    1074,     514,     719,     728,     729
    1075,     422,     719,     730,     895
    1076,     277,     374,     717,     719
    1077,     377,     718,     419,     719
    1078,     726,     835,     872,     878
    1079,     658,     718,     720,     722
    1080,     154,     818,     159,     819
    1081,     438,     492,     675,     677
    1082,     710,     796,     818,     820
    1083,     298,     650,     351,     789
    1084,     354,     439,     592,     678
    1085,     675,     676,     677,     944
    1086,     359,     610,     436,     916
    1087,     293,     291,     915,     917
    1088,     438,     677,     678,     915
    1089,     741,     743,     745,     938
    1090,     178,     301,     302,     791
    1091,     520,     738,     535,     935
    1092,     521,     738,     520,     739
    1093,     455,     739,     936,     938
    1094,     722,     725,     732,     881
    1095,     750,     756,     751,     849
    1096,     703,     705,     704,     923
    1097,     390,     712,     711,     714
    1098,     408,     712,     714,     757
    1099,     363,     432,     618,     636
    1100,     392,     712,     342,     923
    1101,     618,     636,     622,     638
    1102,     390,     408,     712,     714
    1103,     136,     139,     165,     639
    1104,     111,     179,     768,     866
    1105,     179,     810,     768,     866
    1106,     610,     611,     616,     677
    1107,      55,      54,     767,     768
    1108,     447,     484,     483,     846
    1109,      55,     863,      56,     866
    1110,     770,     810,     791,     866
    1111,     162,     768,     810,     885
    1112,     495,     616,     549,     944
    1113,      54,     768,     148,     885
    1114,     653,     684,     685,     686
    1115,     404,     602,     529,     797
    1116,     645,     798,     777,     940
    1117,     598,     603,     892,     903
    1118,     434,     617,     498,     841
    1119,     594,     604,     597,     797
    1120,     169,     595,     594,     921
    1121,     220,     310,     266,     921
    1122,     169,     311,     594,     595
    1123,     453,     780,     578,     797
    1124,     532,     886,     889,     892
    1125,     411,     454,     525,     604
    1126,     589,     633,     590,     794
    1127,      57,     589,     152,     699
    1128,     174,     307,     704,     923
    1129,     366,     461,     429,     812
    1130,     741,     742,     743,     882
    1131,     485,     554,     557,     758
    1132,     115,     707,     174,     820
    1133,      59,     710,     115,     820
    1134,      58,     153,      59,     796
    1135,     416,     792,     822,     823
    1136,     738,     747,     745,     879
    1137,     718,     722,     843,     879
    1138,     658,     719,     717,     726
    1139,     823,     824,     879,     934
    1140,     722,     723,     725,     880
    1141,     537,     721,     728,     792
    1142,     284,     319,     366,     687
    1143,     538,     823,     536,     934
    1144,     538,     884,     824,     934
    1145,     517,     721,     516,     723
    1146,     516,     721,     538,     884
    1147,     478,     884,     538,     934
    1148,     772,     927,     879,     930
    1149,      35,      91,     128,     929
    1150,     724,     729,     730,     945
    1151,     421,     733,     724,     837
    1152,     422,     719,     514,     730
    1153,     278,     697,     696,     894
    1154,     423,     730,     827,     895
    1155,     739,     744,     745,     935
    1156,     585,     652,     586,     656
    1157,     386,     746,     875,     877
    1158,     479,     935,     890,     936
    1159,     455,     739,     520,     936
    1160,     520,     739,     738,     935
    1161,     479,     520,     935,     936
    1162,     718,     721,     722,     824
    1163,     273,     822,     378,     843
    1164,     720,     724,     723,     729
    1165,     319,     643,     687,     811
    1166,     722,     881,     772,     930
    1167,     420,     724,     723,     725
    1168,     420,     724,     725,     837
    1169,     717,     726,     730,     893
    1170,     314,     315,     844,     930
    1171,     272,     725,     880,     881
    1172,     724,     726,     725,     837
    1173,     211,     725,     272,     881
    1174,      94,     131,     207,     835
    1175,     421,     734,     733,     837
    1176,     421,     724,     420,     837
    1177,     380,     420,     723,     725
    1178,     432,     501,     622,     636
    1179,     376,     421,     420,     837
    1180,      38,     129,     872,     941
    1181,     207,     317,     276,     734
    1182,     208,     835,     734,     837
    1183,     513,     729,     724,     945
    1184,     376,     734,     421,     837
    1185,     730,     874,     733,     945
    1186,     500,     622,     546,     644
    1187,     582,     591,     586,     592
    1188,     574,     585,     586,     656
    1189,     609,     611,     677,     679
    1190,      49,     651,      50,     657
    1191,     611,     616,     677,     680
    1192,     141,     657,     189,     899
    1193,      50,     657,     651,     855
    1194,     572,     576,     585,     851
    1195,     488,     580,     442,     591
    1196,     493,     674,     586,     675
    1197,     439,     586,     592,     678
    1198,     491,     586,     591,     592
    1199,     438,     677,     675,     678
    1200,     494,     493,     675,     854
    1201,     499,     547,     548,     621
    1202,     494,     854,     675,     944
    1203,     419,     719,     718,     728
    1204,     718,     843,     822,     879
    1205,     718,     822,     824,     879
    1206,     646,     800,     799,     801
    1207,     645,     782,     777,     803
    1208,      73,      85,     231,     808
    1209,     345,     449,     344,     766
    1210,     118,     119,     171,     802
    1211,      25,     645,     648,     803
    1212,      69,     648,     118,     802
    1213,      81,     647,     645,     800
    1214,     646,     802,     801,     806
    1215,     517,     539,     537,     721
    1216,     575,     580,     576,     584
    1217,     586,     674,     652,     675
    1218,     353,     574,     440,     656
    1219,     575,     580,     584,     924
    1220,     488,     580,     591,     924
    1221,     572,     575,     574,     585
    1222,     440,     574,     493,     674
    1223,     493,     574,     586,     674
    1224,     709,     909,     908,     943
    1225,     706,     709,     750,     756
    1226,     706,     707,     709,     713
    1227,     751,     869,     867,     910
    1228,     116,      61,     117,     918
    1229,     158,     908,     819,     909
    1230,     173,     706,     707,     708
    1231,     710,     713,     818,     819
    1232,     228,     227,     260,     750
    1233,     493,     674,     675,     854
    1234,     676,     682,     681,     853
    1235,     321,     681,     682,     853
    1236,     356,     674,     437,     854
    1237,     446,     484,     447,     846
    1238,     464,     680,     617,     853
    1239,     321,     682,     356,     853
    1240,      36,     127,     772,     862
    1241,      36,      92,     127,     862
    1242,     720,     723,     721,     729
    1243,      92,     731,     732,     862
    1244,     673,     828,     698,     830
    1245,     506,     663,     543,     831
    1246,     544,     663,     507,     871
    1247,     642,     665,     688,     904
    1248,     196,     286,     637,     906
    1249,     430,     427,     505,     905
    1250,     713,     715,     818,     902
    1251,     410,     526,     528,     886
    1252,     526,     533,     886,     890
    1253,     524,     525,     532,     889
    1254,     533,     524,     889,     890
    1255,     191,     605,     607,     609
    1256,     194,     191,     605,     607
    1257,     293,     358,     355,     915
    1258,     607,     613,     614,     619
    1259,     606,     639,     643,     811
    1260,     496,     610,     615,     616
    1261,     435,     610,     613,     615
    1262,     288,     362,     613,     618
    1263,     693,     758,     759,     764
    1264,     583,     693,     689,     758
    1265,     693,     695,     885,     937
    1266,     632,     770,     790,     791
    1267,     763,     767,     768,     863
    1268,     177,     303,     765,     771
    1269,     181,     300,     771,     914
    1270,     180,     181,     771,     937
    1271,     484,     555,     556,     634
    1272,     354,     592,     649,     678
    1273,     488,     591,     552,     924
    1274,     354,     649,     592,     650
    1275,     574,     656,     586,     674
    1276,      51,     107,     850,     920
    1277,     586,     675,     652,     678
    1278,     443,     584,     444,     789
    1279,     674,     853,     676,     854
    1280,     291,     609,     915,     917
    1281,     353,     573,     574,     656
    1282,     440,     656,     574,     674
    1283,     357,     656,     440,     674
    1284,     431,     430,     502,     904
    1285,     652,     656,     655,     674
    1286,     186,     650,     183,     852
    1287,     184,     851,     572,     855
    1288,     264,     785,     784,     903
    1289,      29,     121,     122,     595
    1290,     179,     302,     323,     810
    1291,     660,     828,     830,     832
    1292,     368,     668,     858,     905
    1293,     425,     830,     508,     861
    1294,      98,     667,     666,     668
    1295,     508,     543,     505,     663
    1296,     663,     664,     860,     871
    1297,     370,     426,     369,     593
    1298,     459,     838,     593,     860
    1299,     369,     426,     459,     593
    1300,      40,     659,     133,     834
    1301,     507,     543,     506,     663
    1302,     751,     754,     752,     755
    1303,     705,     793,     757,     907
    1304,     332,     470,     331,     932
    1305,     161,     590,     588,     864
    1306,     450,     471,     480,     715
    1307,     706,     709,     708,     750
    1308,     480,     715,     471,     793
    1309,     395,     406,     900,     902
    1310,     189,     655,     292,     682
    1311,     219,     815,     773,     816
    1312,     738,     739,     745,     935
    1313,      86,     925,     221,     926
    1314,     412,     523,     876,     888
    1315,     744,     746,     816,     817
    1316,     218,     746,     815,     816
    1317,     526,     890,     886,     936
    1318,     630,     887,     744,     890
    1319,     642,     687,     686,     812
    1320,     630,     886,     631,     887
    1321,     456,     631,     630,     886
    1322,     479,     890,     526,     936
    1323,     595,     596,     597,     775
    1324,      30,     599,      87,     773
    1325,     411,     524,     412,     888
    1326,     266,     604,     601,     921
    1327,     499,     547,     621,     644
    1328,     476,     497,     547,     621
    1329,     605,     606,     608,     611
    1330,     497,     548,     547,     621
    1331,     181,     914,     771,     937
    1332,     575,     583,     692,     924
    1333,     467,     473,     474,     689
    1334,     216,     215,     741,     882
    1335,     441,     574,     573,     692
    1336,     489,     583,     553,     924
    1337,     575,     584,     583,     924
    1338,      29,      84,      28,     787
    1339,     263,     264,     329,     784
    1340,     258,     399,     856,     928
    1341,      83,     783,     222,     940
    1342,     233,     311,     595,     776
    1343,      84,     240,     222,     787
    1344,     456,     526,     886,     936
    1345,     630,     744,     887,     891
    1346,     221,     313,     265,     926
    1347,      30,      87,      31,     773
    1348,      86,     221,     239,     926
    1349,     522,     748,     876,     935
    1350,     266,     387,     267,     601
    1351,     411,     888,     604,     889
    1352,     738,     745,     741,     879
    1353,     221,     123,     168,     891
    1354,     386,     875,     412,     876
    1355,      86,      31,     123,     925
    1356,     522,     535,     738,     935
    1357,     522,     738,     748,     935
    1358,     415,     519,     747,     748
    1359,     519,     522,     738,     748
    1360,      55,     112,      56,     863
    1361,      89,     215,     882,     927
    1362,     534,     523,     890,     935
    1363,     413,     876,     748,     877
    1364,      34,      35,     126,     929
    1365,     361,     336,     617,     681
    1366,     361,     681,     617,     825
    1367,     679,     857,     896,     897
    1368,     616,     677,     680,     944
    1369,     140,     857,     899,     942
    1370,     481,     587,     449,     766
    1371,     652,     674,     655,     676
    1372,     611,     617,     681,     825
    1373,     340,     630,     743,     938
    1374,     314,     384,     269,     740
    1375,     384,     414,     383,     740
    1376,     415,     522,     519,     748
    1377,     742,     745,     746,     912
    1378,     271,     270,     382,     912
    1379,     414,     521,     739,     740
    1380,     521,     536,     738,     934
    1381,     745,     748,     877,     912
    1382,     739,     744,     935,     936
    1383,     742,     749,     745,     912
    1384,     738,     741,     740,     879
    1385,     742,     744,     743,     817
    1386,     145,     146,     163,     695
    1387,     146,     163,     695,     885
    1388,     352,     690,     335,     692
    1389,      53,     885,     695,     937
    1390,     185,     163,     577,     695
    1391,     510,     540,     541,     874
    1392,     103,     857,     605,     897
    1393,     581,     693,     584,     914
    1394,      46,     103,      47,     857
    1395,     195,     619,     716,     736
    1396,     288,     362,     290,     613
    1397,     194,     195,     288,     619
    1398,     288,     618,     613,     619
    1399,     576,     850,     851,     920
    1400,     441,     489,     574,     692
    1401,     474,     554,     553,     583
    1402,     443,     580,     584,     789
    1403,     183,     650,     298,     788
    1404,     586,     652,     649,     678
    1405,     188,     572,     656,     855
    1406,     489,     474,     553,     583
    1407,     488,     551,     552,     591
    1408,      43,     667,     100,     688
    1409,      98,     200,     135,     667
    1410,      43,      99,     653,     685
    1411,      99,     198,     653,     685
    1412,      97,      42,     134,     666
    1413,     574,     575,     582,     585
    1414,      50,     651,     850,     855
    1415,     105,     657,      50,     855
    1416,     143,     850,     107,     855
    1417,     107,     851,     184,     855
    1418,     655,     676,     674,     853
    1419,     585,     651,     657,     855
    1420,     576,     913,     788,     920
    1421,     614,     619,     620,     716
    1422,     576,     788,     585,     850
    1423,      38,      39,      94,     941
    1424,     129,     731,     872,     878
    1425,      94,     207,     208,     835
    1426,     709,     713,     819,     909
    1427,      92,      37,     731,     862
    1428,      94,     208,     129,     878
    1429,     277,     658,     377,     719
    1430,     717,     865,     872,     894
    1431,     425,     672,     698,     830
    1432,     593,     664,     832,     859
    1433,     777,     783,     782,     940
    1434,      39,      95,     132,     873
    1435,     372,     425,     672,     698
    1436,     424,     425,     698,     830
    1437,     203,     673,     661,     833
    1438,     424,     698,     827,     830
    1439,     698,     828,     827,     830
    1440,     373,     374,     423,     895
    1441,     182,     788,     581,     913
    1442,     530,     559,     558,     907
    1443,     153,     159,     154,     796
    1444,     157,     155,     158,     908
    1445,     705,     707,     713,     820
    1446,     114,     115,     174,     820
    1447,     308,     706,     392,     923
    1448,     236,     867,     237,     910
    1449,     174,     707,     308,     923
    1450,      59,     154,      60,     710
    1451,     172,     260,     173,     750
    1452,     115,     116,     173,     708
    1453,     224,     223,     257,     798
    1454,     709,     900,     713,     909
    1455,      26,      70,     782,     803
    1456,      25,      69,      26,     803
    1457,      27,      82,     645,     940
    1458,      26,      27,     645,     782
    1459,     568,     646,     647,     800
    1460,      25,      26,      81,     645
    1461,      81,      82,     224,     645
    1462,      64,     224,      74,     800
    1463,      64,      81,     224,     800
    1464,     693,     764,     771,     937
    1465,     148,     179,     162,     768
    1466,     181,     913,     914,     937
    1467,     110,     913,     181,     937
    1468,     587,     632,     765,     766
    1469,      53,     913,     110,     937
    1470,      53,     109,     110,     913
    1471,     693,     771,     914,     937
    1472,     764,     885,     768,     937
    1473,      53,     146,     695,     885
    1474,     588,     632,     627,     866
    1475,     106,     187,     651,     898
    1476,     104,     896,     857,     897
    1477,     103,     104,     857,     897
    1478,     649,     679,     898,     917
    1479,     187,     649,     651,     898
    1480,     606,     654,     617,     825
    1481,     607,     609,     608,     610
    1482,     585,     850,     651,     855
    1483,      47,     857,     104,     896
    1484,     164,     681,     192,     942
    1485,     321,     336,     681,     853
    1486,     679,     857,     681,     899
    1487,     611,     857,     679,     897
    1488,     356,     682,     655,     853
    1489,     105,     188,     657,     855
    1490,     494,     475,     854,     944
    1491,     585,     649,     651,     852
    1492,     186,     651,     649,     852
    1493,     192,     320,     289,     825
    1494,     494,     675,     492,     944
    1495,     475,     680,     854,     944
    1496,     440,     490,     493,     574
    1497,      49,     106,      50,     651
    1498,     436,     677,     438,     916
    1499,     185,     695,     577,     851
    1500,      53,     695,     913,     937
    1501,      53,     695,     145,     920
    1502,     636,     638,     637,     642
    1503,      99,      44,     136,     685
    1504,     107,     850,     851,     855
    1505,     497,     612,     548,     621
    1506,     102,     193,     139,     737
    1507,     194,     607,     605,     716
    1508,     605,     607,     606,     716
    1509,     191,     291,     190,     609
    1510,     194,     290,     191,     607
    1511,     101,     194,     103,     716
    1512,     176,     177,     304,     864
    1513,     304,     345,     344,     765
    1514,     177,     180,     303,     771
    1515,     345,     348,     448,     759
    1516,     304,     303,     345,     765
    1517,     576,     851,     695,     920
    1518,     109,     788,     913,     920
    1519,     191,     605,     609,     897
    1520,     439,     438,     492,     675
    1521,     364,     431,     432,     636
    1522,     324,     323,     334,     810
    1523,      53,     913,     695,     920
    1524,     182,     581,     299,     913
    1525,     351,     442,     443,     789
    1526,     585,     850,     788,     852
    1527,     145,     851,     107,     920
    1528,      51,      52,     107,     920
    1529,     107,     851,     850,     920
    1530,      53,     109,     913,     920
    1531,     545,     640,     641,     911
    1532,     108,     788,     109,     920
    1533,     165,     639,     737,     811
    1534,     378,     822,     718,     843
    1535,     372,     371,     280,     672
    1536,     273,     381,     378,     822
    1537,     271,     382,     747,     912
    1538,     210,     843,     658,     862
    1539,      93,     862,     210,     865
    1540,     419,     514,     422,     728
    1541,     377,     422,     374,     719
    1542,     227,     261,     750,     756
    1543,      79,      80,     752,     848
    1544,     562,     669,     564,     670
    1545,     228,     227,     750,     849
    1546,      38,      94,     129,     941
    1547,     751,     910,     867,     933
    1548,     670,     870,     751,     918
    1549,     337,     461,     366,     812
    1550,     190,     897,     609,     917
    1551,     190,     898,     897,     917
    1552,     828,     836,     829,     838
    1553,     583,     689,     693,     694
    1554,     431,     502,     501,     641
    1555,     190,     609,     291,     917
    1556,     279,     278,     373,     697
    1557,     753,     868,     869,     870
    1558,     112,     176,     151,     588
    1559,      95,     130,     206,     894
    1560,     428,     504,     871,     911
    1561,     103,     605,     191,     897
    1562,     541,     542,     509,     829
    1563,     191,     609,     190,     897
    1564,     166,     734,     835,     839
    1565,     544,     683,     663,     871
    1566,     131,     166,     207,     835
    1567,     660,     663,     831,     861
    1568,     642,     684,     683,     911
    1569,     144,     183,     108,     852
    1570,     298,     297,     351,     650
    1571,     126,     127,     167,     927
    1572,     515,     538,     537,     792
    1573,     208,     275,     211,     878
    1574,      92,     862,     732,     881
    1575,     544,     683,     871,     911
    1576,      92,     129,     211,     878
    1577,     370,     426,     635,     871
    1578,     594,     595,     597,     921
    1579,     277,     274,     377,     658
    1580,     193,     811,     737,     825
    1581,      93,     128,     210,     862
    1582,     370,     635,     727,     871
    1583,     481,     449,     482,     766
    1584,      27,     782,     783,     940
    1585,     153,     794,     159,     818
    1586,     197,     286,     196,     906
    1587,     258,     786,     813,     928
    1588,     222,     264,     263,     784
    1589,     258,     248,     809,     856
    1590,     446,     530,     484,     845
    1591,     365,     430,     904,     905
    1592,     726,     837,     835,     878
    1593,     359,     609,     607,     610
    1594,     645,     800,     646,     801
    1595,     314,     740,     269,     741
    1596,     257,     798,     230,     800
    1597,     257,     259,     230,     813
    1598,     189,     292,     321,     682
    1599,      45,     639,     716,     737
    1600,     566,     799,     646,     939
    1601,      97,     202,     133,     931
    1602,     475,     549,     616,     944
    1603,     187,     190,     293,     917
    1604,     618,     636,     620,     637
    1605,     282,     371,     368,     858
    1606,     741,     745,     749,     879
    1607,     229,     230,     799,     939
    1608,      78,     229,     799,     939
    1609,      92,      37,     129,     731
    1610,      37,      93,     130,     865
    1611,     235,     804,     803,     805
    1612,      75,      78,     567,     939
    1613,     483,     484,     556,     846
    1614,     195,     287,     288,     619
    1615,     521,     535,     520,     738
    1616,     318,     360,     643,     654
    1617,     460,     459,     477,     838
    1618,      59,      60,     115,     710
    1619,     568,     646,     800,     939
    1620,     533,     523,     524,     890
    1621,      36,      37,      92,     862
    1622,      36,      35,     128,     772
    1623,     511,     540,     510,     945
    1624,     609,     679,     677,     917
    1625,      74,     568,     800,     939
    1626,     235,     171,     252,     805
    1627,     279,     372,     280,     673
    1628,      74,     800,     230,     939
    1629,     195,     287,     619,     736
    1630,     477,     506,     831,     838
    1631,      74,      75,     567,     939
    1632,      45,     101,      46,     716
    1633,     287,     364,     363,     636
    1634,     194,     619,     607,     716
    1635,     642,     727,     684,     911
    1636,     601,     816,     773,     887
    1637,     441,     489,     490,     574
    1638,     773,     774,     887,     925
    1639,     669,     670,     751,     849
    1640,     288,     613,     607,     619
    1641,     387,     875,     816,     888
    1642,     443,     442,     488,     580
    1643,     168,     743,     817,     882
    1644,     606,     621,     612,     654
    1645,     219,     220,     601,     773
    1646,     576,     695,     913,     920
    1647,     194,     288,     607,     619
    1648,     219,     601,     267,     816
    1649,     451,     480,     527,     757
    1650,     451,     714,     480,     757
    1651,     220,     601,     599,     921
    1652,     182,     183,     298,     788
    1653,     749,     814,     842,     912
    1654,     350,     351,     443,     789
    1655,     502,     505,     544,     683
    1656,     144,     186,     183,     852
    1657,     436,     495,     438,     677
    1658,     267,     601,     387,     816
    1659,     568,     646,     569,     647
    1660,     741,     749,     882,     927
    1661,     105,     189,     141,     657
    1662,      44,     685,     688,     922
    1663,     353,     352,     441,     573
    1664,     597,     599,     601,     921
    1665,     486,     584,     583,     760
    1666,      49,     106,     651,     898
    1667,     460,     477,     733,     838
    1668,     453,     579,     578,     780
    1669,     183,     297,     298,     650
    1670,     416,     519,     518,     823
    1671,     408,     714,     451,     757
    1672,     450,     715,     714,     902
    1673,     824,     884,     844,     934
    1674,     426,     428,     507,     871
    1675,     578,     579,     778,     780
    1676,     383,     414,     455,     938
    1677,     398,     631,     410,     892
    1678,     520,     535,     534,     935
    1679,     115,     173,     174,     707
    1680,      11,      77,      76,     671
    1681,     309,     255,     330,     778
    1682,     161,     176,     325,     864
    1683,     236,     867,     910,     933
    1684,     589,     624,     794,     821
    1685,      33,      90,      34,     749
    1686,     630,     891,     887,     926
    1687,     705,     818,     794,     821
    1688,      62,     670,     117,     918
    1689,     702,     794,     705,     795
    1690,     706,     707,     713,     923
    1691,     713,     818,     819,     902
    1692,     393,     578,     453,     579
    1693,      33,      90,     749,     814
    1694,     452,     712,     408,     757
    1695,      92,     127,     862,     881
    1696,     772,     842,     843,     879
    1697,      92,     212,     127,     881
    1698,     212,     211,     272,     881
    1699,     625,     626,     629,     845
    1700,     623,     628,     701,     702
    1701,     651,     679,     896,     898
    1702,      43,     100,      44,     688
    1703,     665,     904,     683,     905
    1704,     213,     214,     271,     842
    1705,     285,     905,     365,     906
    1706,     589,     699,     624,     821
    1707,     502,     683,     641,     904
    1708,     102,     140,     192,     942
    1709,     138,      44,     100,     922
    1710,     196,     637,     688,     906
    1711,     104,     190,     142,     898
    1712,     662,     666,     667,     668
    1713,     675,     854,     676,     944
    1714,     104,     897,     190,     898
    1715,     134,     198,     201,     653
    1716,     623,     626,     625,     845
    1717,     203,     280,     282,     661
    1718,     427,     425,     508,     861
    1719,      97,     659,     666,     859
    1720,     645,     777,     798,     801
    1721,      74,     224,     257,     800
    1722,     371,     672,     427,     858
    1723,     472,     468,     587,     633
    1724,     224,      82,     223,     798
    1725,     693,     762,     758,     764
    1726,     427,     861,     505,     905
    1727,     663,     684,     664,     871
    1728,     340,     455,     456,     936
    1729,     274,     718,     658,     843
    1730,     413,     523,     522,     876
    1731,     531,     629,     625,     793
    1732,     184,     295,     188,     572
    1733,      89,     216,     125,     882
    1734,     357,     437,     356,     674
    1735,      89,      34,     126,     749
    1736,      34,      91,      35,     929
    1737,     531,     625,     558,     793
    1738,     498,     475,     549,     616
    1739,      53,      54,     146,     885
    1740,     109,     788,     182,     913
    1741,      63,      58,     114,     700
    1742,     662,     858,     668,     905
    1743,     662,     665,     663,     905
    1744,     505,     663,     683,     905
    1745,     256,     778,     807,     809
    1746,     623,     790,     626,     845
    1747,     246,      10,      76,     671
    1748,     302,     347,     346,     770
    1749,     258,     856,     786,     928
    1750,     472,     555,     531,     629
    1751,     481,     556,     555,     634
    1752,     555,     558,     531,     845
    1753,     403,     559,     530,     907
    1754,      49,     141,      48,     896
    1755,     234,     306,     175,     754
    1756,     292,     357,     356,     655
    1757,     555,     531,     629,     845
    1758,     306,     394,     343,     900
    1759,     336,     463,     464,     853
    1760,     469,     633,     472,     793
    1761,     491,     492,     493,     675
    1762,     293,     291,     358,     915
    1763,     338,     459,     735,     839
    1764,     301,     247,     401,     623
    1765,      85,     807,     231,     808
    1766,     281,     369,     316,     593
    1767,     264,     784,     787,     903
    1768,     660,     831,     830,     861
    1769,     720,     725,     726,     732
    1770,     240,     264,     787,     903
    1771,      76,      77,     228,     669
    1772,     152,     160,     153,     821
    1773,     317,     338,     375,     735
    1774,     477,     459,     506,     838
    1775,     243,     307,     247,     701
    1776,     596,     598,     775,     787
    1777,     496,     612,     548,     616
    1778,     114,      59,     115,     820
    1779,     229,     259,     258,     813
    1780,     596,     784,     779,     785
    1781,     399,     409,     785,     928
    1782,      28,     783,     781,     787
    1783,     235,     252,     804,     805
    1784,      60,     708,     710,     908
    1785,     233,     254,     311,     776
    1786,     162,     323,     324,     810
    1787,     223,     263,     257,     798
    1788,     143,     107,     184,     855
    1789,     255,     256,     778,     807
    1790,     299,     913,     581,     914
    1791,     155,     708,     908,     943
    1792,      60,     710,     154,     908
    1793,     343,     394,     450,     901
    1794,     555,     629,     634,     845
    1795,     721,     723,     722,     880
    1796,      97,     133,     659,     931
    1797,     353,     440,     357,     656
    1798,     315,     272,     379,     880
    1799,     272,     380,     379,     880
    1800,     258,     399,     248,     856
    1801,      43,     135,     100,     667
    1802,     154,     710,     819,     908
    1803,     828,     829,     830,     832
    1804,      65,     807,      85,     808
    1805,     566,     568,     567,     939
    1806,     744,     745,     748,     877
    1807,     232,     807,     806,     808
    1808,     777,     798,     799,     813
    1809,     232,     255,     778,     807
    1810,     279,     373,     372,     698
    1811,     454,     604,     594,     797
    1812,     157,     155,     908,     943
    1813,     726,     872,     731,     878
    1814,     722,     879,     824,     880
    1815,     745,     877,     746,     912
    1816,      95,     205,     132,     894
    1817,     366,     367,     686,     812
    1818,     157,     908,     909,     943
    1819,      41,      98,      42,     666
    1820,     385,     747,     382,     912
    1821,     346,     447,     466,     770
    1822,     372,     425,     371,     672
    1823,     162,     179,     323,     810
    1824,      34,      90,      91,     749
    1825,     150,     244,     627,     699
    1826,     369,     316,     593,     839
    1827,     166,     316,     839,     931
    1828,     301,     347,     302,     791
    1829,     327,     331,     819,     932
    1830,     583,     584,     693,     760
    1831,     346,     466,     334,     770
    1832,     794,     818,     795,     932
    1833,     111,     178,     179,     866
    1834,     332,     795,     470,     932
    1835,     304,     344,     325,     864
    1836,     371,     427,     368,     858
    1837,      64,     568,      19,     647
    1838,     204,     279,     280,     673
    1839,     510,     541,     509,     874
    1840,      23,      73,     120,     571
    1841,     369,     593,     459,     839
    1842,      94,     835,     208,     878
    1843,     717,     731,     726,     872
    1844,     375,     421,     734,     735
    1845,     423,     510,     424,     827
    1846,     275,     837,     725,     878
    1847,     597,     775,     599,     921
    1848,     109,     182,     181,     913
    1849,     298,     650,     581,     788
    1850,     332,     794,     795,     932
    1851,     389,     410,     398,     631
    1852,     211,     275,     725,     878
    1853,     211,     732,     725,     881
    1854,     439,     675,     586,     678
    1855,     274,     378,     718,     843
    1856,     324,     335,     322,     690
    1857,     424,     509,     425,     830
    1858,     425,     509,     508,     830
    1859,     208,     835,     837,     878
    1860,      94,     835,     878,     941
    1861,     221,     168,     313,     891
    1862,      66,      86,     239,     774
    1863,      92,     731,     129,     878
    1864,     657,     679,     682,     899
    1865,     679,     897,     898,     917
    1866,      92,     732,     211,     881
    1867,     628,     699,     701,     702
    1868,     676,     853,     680,     854
    1869,     258,     409,     399,     928
    1870,     429,     503,     504,     911
    1871,      48,     141,     140,     896
    1872,     679,     896,     857,     899
    1873,     229,     230,     259,     813
    1874,     140,     857,     896,     899
    1875,     709,     819,     710,     908
    1876,     258,     813,     329,     928
    1877,     158,     154,     819,     908
    1878,     104,     896,     897,     898
    1879,     157,     909,     910,     943
    1880,     140,     164,     192,     942
    1881,      66,      30,      86,     774
    1882,     124,      87,     219,     773
    1883,     217,     268,     270,     746
    1884,     713,     900,     902,     909
    1885,     215,     314,     269,     741
    1886,      46,     857,      47,     942
    1887,     708,     918,     751,     943
    1888,      46,     102,     737,     942
    1889,      63,     243,     699,     700
    1890,     670,     753,     751,     870
    1891,      49,     896,     142,     898
    1892,     284,     366,     686,     687
    1893,     587,     588,     590,     864
    1894,     707,     710,     709,     713
    1895,     438,     495,     492,     677
    1896,     495,     549,     550,     944
    1897,     437,     493,     494,     854
    1898,     379,     457,     844,     880
    1899,      60,     155,      61,     708
    1900,     325,     587,     590,     864
    1901,     209,     658,     717,     865
    1902,     720,     724,     729,     730
    1903,     658,     720,     719,     726
    1904,     722,     843,     772,     862
    1905,     600,     604,     888,     889
    1906,     209,     274,     277,     658
    1907,     271,     842,     822,     843
    1908,     219,     267,     218,     816
    1909,     349,     444,     445,     914
    1910,     350,     443,     444,     789
    1911,     326,     590,     633,     794
    1912,      92,     211,     212,     881
    1913,     526,     533,     532,     886
    1914,     443,     487,     444,     584
    1915,     225,     752,     755,     756
    1916,     173,     308,     174,     707
    1917,     120,     232,     170,     806
    1918,     469,     468,     472,     633
    1919,     390,     451,     408,     714
    1920,     452,     408,     527,     757
    1921,     160,     590,     326,     794
    1922,     161,     160,     589,     590
    1923,     228,     847,     227,     849
    1924,     174,     308,     307,     923
    1925,     391,     452,     342,     712
    1926,     226,     752,     225,     756
    1927,     170,     232,     805,     806
    1928,     600,     601,     773,     887
    1929,     225,     305,     262,     756
    1930,      79,     563,     565,     669
    1931,     226,     261,     227,     756
    1932,      80,     225,     226,     752
    1933,     274,     273,     378,     843
    1934,     325,     587,     333,     590
    1935,      32,      88,      33,     742
    1936,     391,     390,     711,     756
    1937,     423,     730,     510,     827
    1938,     119,     170,     171,     805
    1939,     663,     683,     684,     871
    1940,     658,     843,     722,     862
    1941,     420,     517,     417,     723
    1942,     277,     717,     658,     719
    1943,     261,     391,     706,     756
    1944,     326,     590,     333,     633
    1945,     422,     514,     719,     728
    1946,     374,     422,     423,     895
    1947,     642,     688,     685,     922
    1948,     222,     240,     264,     787
    1949,     512,     540,     513,     945
    1950,      73,     232,     120,     806
    1951,     398,     410,     405,     892
    1952,     725,     726,     732,     878
    1953,     399,     409,     404,     785
    1954,     248,     400,     256,     809
    1955,     343,     390,     711,     901
    1956,     306,     900,     755,     933
    1957,     711,     712,     713,     714
    1958,     338,     369,     459,     839
    1959,     530,     623,     625,     845
    1960,      28,     781,     595,     787
    1961,     405,     528,     404,     892
    1962,      27,     783,      83,     940
    1963,     448,     482,     449,     766
    1964,     149,     177,     112,     863
    1965,     600,     631,     887,     926
    1966,      50,     144,      51,     850
    1967,     398,     892,     405,     903
    1968,     161,     325,     590,     864
    1969,     176,     304,     325,     864
    1970,     401,     403,     446,     623
    1971,     244,     247,     301,     628
    1972,     247,     402,     401,     623
    1973,     217,     746,     270,     912
    1974,     626,     628,     627,     790
    1975,     167,     314,     215,     927
    1976,      86,     123,     221,     925
    1977,     706,     709,     711,     713
    1978,     269,     740,     383,     741
    1979,     478,     536,     521,     934
    1980,      44,     639,     685,     922
    1981,      44,     688,     100,     922
    1982,     226,     752,     756,     847
    1983,     522,     523,     534,     935
    1984,     206,     278,     205,     894
    1985,     302,     770,     346,     810
    1986,     386,     412,     413,     876
    1987,     119,     170,     805,     806
    1988,     465,     689,     489,     692
    1989,     346,     770,     334,     810
    1990,      71,     234,     754,     867
    1991,     301,     628,     790,     791
    1992,     463,     494,     475,     854
    1993,     689,     693,     694,     762
    1994,     294,     355,     354,     649
    1995,     489,     552,     490,     924
    1996,      53,     110,      54,     937
    1997,     162,     810,     324,     885
    1998,     138,     101,      45,     736
    1999,     759,     764,     765,     771
    2000,     278,     277,     374,     717
    2001,     285,     368,     365,     905
    2002,      69,     648,     802,     803
    2003,      85,     571,     566,     808
    2004,     324,     810,     762,     885
    2005,     458,     844,     884,     934
    2006,     758,     759,     764,     769
    2007,     231,     256,     255,     807
    2008,     334,     770,     691,     810
    2009,     113,     754,     752,     883
    2010,      73,      24,      85,     571
    2011,      13,      14,      80,     848
    2012,     528,     526,     532,     886
    2013,     565,     848,     753,     883
    2014,     751,     870,     869,     918
    2015,     146,     162,     163,     885
    2016,      56,     112,     151,     588
    2017,     423,     511,     510,     730
    2018,      11,      10,     564,     671
    2019,     113,     225,     752,     754
    2020,     146,     148,     162,     885
    2021,     246,     564,     670,     919
    2022,     658,     722,     731,     862
    2023,     272,     275,     380,     725
    2024,     126,     927,     749,     929
    2025,      40,      96,     659,     834
    2026,     131,     835,     834,     931
    2027,     421,     460,     512,     733
    2028,     730,     826,     733,     874
    2029,     102,      47,     140,     942
    2030,     593,     635,     664,     859
    2031,     660,     858,     662,     861
    2032,     276,     375,     376,     734
    2033,      67,     869,     868,     870
    2034,      68,      71,     753,     867
    2035,      71,     754,     753,     867
    2036,     563,     565,     669,     753
    2037,     562,     563,     669,     753
    2038,      63,     114,     243,     700
    2039,     122,     220,     599,     921
    2040,      30,     773,      31,     774
    2041,     403,     625,     703,     907
    2042,     327,     326,     332,     794
    2043,     193,     289,     318,     825
    2044,     773,     816,     817,     887
    2045,     508,     542,     543,     831
    2046,      40,     834,     131,     873
    2047,     726,     826,     730,     893
    2048,      67,     238,     237,     869
    2049,     576,     581,     788,     913
    2050,     773,     816,     815,     817
    2051,     352,     465,     441,     692
    2052,     234,     306,     754,     933
    2053,     406,     471,     450,     715
    2054,     400,     797,     578,     856
    2055,      55,     148,      54,     768
    2056,     170,     232,     309,     778
    2057,     124,     773,     219,     815
    2058,     257,     263,     259,     813
    2059,     251,     396,     395,     909
    2060,     401,     446,     347,     790
    2061,     124,      31,     773,     925
    2062,      28,      72,     781,     782
    2063,     596,     597,     598,     603
    2064,     601,     816,     887,     888
    2065,     642,     686,     727,     812
    2066,     624,     793,     633,     795
    2067,     283,     635,     686,     727
    2068,     262,     390,     391,     756
    2069,     400,     407,     578,     797
    2070,     156,     869,     870,     918
    2071,     225,     752,     754,     755
    2072,     635,     684,     686,     727
    2073,     460,     477,     512,     733
    2074,     306,     755,     754,     933
    2075,     283,     686,     367,     727
    2076,     198,     283,     653,     686
    2077,     751,     869,     910,     943
    2078,     708,     750,     751,     918
    2079,     188,     295,     292,     655
    2080,      49,      50,     105,     657
    2081,      62,      61,     156,     918
    2082,     181,     299,     300,     914
    2083,     299,     350,     349,     581
    2084,     642,     686,     684,     727
    2085,     143,     184,     188,     855
    2086,      96,     661,     659,     833
    2087,     659,     661,     660,     833
    2088,     372,     672,     280,     673
    2089,     660,     663,     662,     664
    2090,     198,     653,     685,     686
    2091,      35,     772,     126,     929
    2092,     475,     550,     549,     944
    2093,     763,     768,     810,     866
    2094,      55,      54,     149,     767
    2095,      69,     802,     171,     803
    2096,     660,     833,     828,     834
    2097,     233,     311,     169,     595
    2098,     255,     256,     393,     579
    2099,     440,     493,     437,     674
    2100,     203,     204,     673,     833
    2101,     373,     697,     278,     895
    2102,      34,     749,      91,     929
    2103,       3,     566,      85,     571
    2104,     772,     842,     879,     929
    2105,     198,     284,     283,     686
    2106,     673,     697,     698,     828
    2107,     119,     120,     170,     806
    2108,     275,     376,     725,     837
    2109,      85,     241,     231,     807
    2110,     722,     879,     880,     930
    2111,     512,     874,     540,     945
    2112,     241,     242,     248,     809
    2113,     343,     711,     900,     901
    2114,     718,     824,     722,     879
    2115,     315,     379,     339,     844
    2116,     478,     458,     884,     934
    2117,     450,     714,     901,     902
    2118,      17,      75,      16,     567
    2119,     457,     417,     516,     884
    2120,     126,     772,     927,     929
    2121,      79,     226,     227,     847
    2122,       1,     565,     560,     883
    2123,      78,     229,     242,     799
    2124,     560,     565,     753,     883
    2125,      79,     563,      12,     565
    2126,      66,     239,     240,     598
    2127,     244,     178,     627,     791
    2128,     414,     458,     521,     740
    2129,     630,     886,     887,     890
    2130,     525,     602,     532,     889
    2131,     410,     886,     528,     892
    2132,     713,     902,     819,     909
    2133,     508,     830,     831,     861
    2134,     251,     910,     900,     933
    2135,     378,     418,     419,     718
    2136,     265,     398,     249,     598
    2137,     489,     553,     552,     924
    2138,     306,     253,     900,     933
    2139,     127,     772,     862,     881
    2140,      70,      72,      27,     782
    2141,      35,     128,     772,     929
    2142,     255,     393,     453,     579
    2143,     784,     786,     785,     928
    2144,      84,     222,     783,     787
    2145,      91,     842,     128,     929
    2146,     400,     404,     407,     797
    2147,      36,     772,     128,     862
    2148,     779,     783,     784,     787
    2149,     170,     232,     778,     805
    2150,     799,     807,     801,     809
    2151,     525,     602,     604,     797
    2152,     265,     398,     598,     926
    2153,      28,      27,     782,     783
    2154,      75,     229,      78,     939
    2155,     410,     528,     405,     892
    2156,     454,     525,     604,     797
    2157,     265,     389,     398,     926
    2158,     224,     645,     798,     800
    2159,     128,     772,     842,     843
    2160,     749,     879,     842,     929
    2161,     404,     529,     407,     797
    2162,      34,     126,     749,     929
    2163,     411,     525,     524,     889
    2164,     249,     598,     398,     903
    2165,     264,     249,     397,     903
    2166,     523,     876,     888,     890
    2167,     404,     528,     529,     602
    2168,     264,     329,     784,     785
    2169,      74,     257,     230,     800
    2170,      37,     130,      38,     731
    2171,     459,     506,     838,     860
    2172,     533,     524,     532,     889
    2173,     210,     274,     658,     843
    2174,     222,     784,     783,     787
    2175,     704,     707,     705,     820
    2176,     418,     416,     518,     792
    2177,     319,     337,     366,     812
    2178,     635,     664,     684,     871
    2179,     319,     318,     643,     811
    2180,     274,     377,     658,     718
    2181,     230,     798,     799,     800
    2182,     138,     100,     196,     922
    2183,     326,     325,     333,     590
    2184,      82,     223,     798,     940
    2185,     174,     707,     704,     820
    2186,     243,     307,     701,     704
    2187,     777,     798,     784,     940
    2188,     308,     260,     392,     706
    2189,      58,     153,     796,     821
    2190,     263,     798,     784,     813
    2191,     305,     306,     343,     711
    2192,     796,     818,     820,     821
    2193,      68,     237,     236,     867
    2194,     237,     250,     251,     910
    2195,      82,     798,     645,     940
    2196,     158,     155,     154,     908
    2197,     224,     798,     257,     800
    2198,     162,     768,     179,     810
    2199,     307,     703,     701,     704
    2200,     226,     262,     261,     756
    2201,      89,     882,     749,     927
    2202,     333,     344,     468,     587
    2203,     391,     390,     408,     712
    2204,     356,     437,     463,     854
    2205,     262,     391,     261,     756
    2206,     703,     705,     712,     757
    2207,     480,     531,     558,     793
    2208,      57,      58,      63,     699
    2209,     702,     705,     793,     795
    2210,     509,     829,     827,     874
    2211,     165,     319,     199,     687
    2212,     447,     483,     466,     770
    2213,     512,     733,     829,     874
    2214,     512,     733,     874,     945
    2215,     480,     757,     793,     907
    2216,     562,     669,     670,     753
    2217,     180,     771,     767,     937
    2218,     350,     444,     349,     581
    2219,     145,     185,     107,     851
    2220,     490,     552,     551,     591
    2221,     108,     183,     182,     788
    2222,     481,     629,     587,     634
    2223,     383,     741,     740,     938
    2224,     521,     738,     739,     740
    2225,     164,     682,     681,     899
    2226,     163,     324,     322,     690
    2227,     296,     352,     353,     573
    2228,     107,     185,     184,     851
    2229,     467,     473,     689,     761
    2230,     584,     693,     760,     914
    2231,     114,     704,     700,     820
    2232,     352,     335,     465,     692
    2233,     185,     322,     296,     577
    2234,     495,     550,     492,     944
    2235,     145,     695,     185,     851
    2236,     509,     542,     508,     831
    2237,     314,     844,     740,     927
    2238,     336,     356,     463,     853
    2239,     286,     365,     364,     904
    2240,     295,     296,     353,     573
    2241,     700,     701,     702,     704
    2242,     227,     847,     756,     849
    2243,     314,     844,     927,     930
    2244,     689,     691,     761,     762
    2245,     458,     521,     740,     934
    2246,     740,     879,     844,     934
    2247,     157,     156,     155,     943
    2248,     243,     174,     307,     704
    2249,     314,     339,     740,     844
    2250,     450,     480,     451,     714
    2251,     556,     634,     769,     846
    2252,     261,     391,     392,     706
    2253,     339,     458,     740,     844
    2254,     624,     629,     633,     793
    2255,     327,     331,     328,     819
    2256,     402,     342,     452,     703
    2257,     251,     395,     253,     900
    2258,     408,     451,     527,     757
    2259,     700,     820,     702,     821
    2260,     244,     243,     628,     699
    2261,     293,     915,     294,     917
    2262,     801,     806,     805,     807
    2263,     609,     897,     679,     917
    2264,     444,     581,     584,     914
    2265,      58,      59,     114,     820
    2266,     514,     721,     539,     729
    2267,     477,     506,     542,     831
    2268,     370,     727,     428,     871
    2269,      58,     114,     700,     820
    2270,     675,     677,     676,     678
    2271,      40,     133,     131,     834
    2272,     152,     589,     160,     821
    2273,     652,     676,     655,     682
    2274,     368,     427,     430,     905
    2275,     289,     361,     360,     654
    2276,     386,     875,     876,     877
    2277,     232,     778,     805,     807
    2278,     517,     539,     721,     729
    2279,     418,     728,     718,     792
    2280,     744,     875,     746,     877
    2281,     218,     267,     268,     816
    2282,     386,     876,     413,     877
    2283,     412,     523,     413,     876
    2284,      63,     244,     150,     699
    2285,     268,     386,     385,     746
    2286,     296,     322,     573,     577
    2287,     163,     690,     695,     885
    2288,     626,     790,     634,     845
    2289,     386,     385,     746,     877
    2290,     260,     261,     392,     706
    2291,     153,     160,     794,     821
    2292,     536,     823,     738,     934
    2293,     409,     405,     404,     785
    2294,     385,     877,     747,     912
    2295,     385,     746,     877,     912
    2296,     713,     714,     715,     902
    2297,     624,     702,     793,     795
    2298,     178,     627,     791,     866
    2299,      53,     145,      52,     920
    2300,     381,     382,     416,     747
    2301,     479,     520,     534,     935
    2302,     630,     886,     890,     936
    2303,     353,     573,     441,     574
    2304,     213,     210,     128,     843
    2305,     124,      32,      31,     925
    2306,     105,      50,     143,     855
    2307,     270,     746,     385,     912
    2308,     300,     348,     303,     771
    2309,     296,     573,     572,     577
    2310,     630,     744,     743,     938
    2311,     110,     180,     149,     767
    2312,     744,     876,     748,     935
    2313,     182,     298,     299,     581
    2314,     322,     352,     573,     690
    2315,     427,     672,     425,     861
    2316,     277,     377,     374,     719
    2317,     513,     723,     724,     729
    2318,     352,     573,     690,     692
    2319,     632,     763,     766,     769
    2320,     185,     577,     572,     851
    2321,     724,     733,     730,     826
    2322,     280,     661,     672,     858
    2323,     427,     858,     672,     861
    2324,     460,     735,     459,     838
    2325,     298,     351,     350,     789
    2326,     720,     721,     728,     729
    2327,     445,     486,     485,     760
    2328,     494,     493,     492,     675
    2329,     185,     163,     322,     577
    2330,     689,     692,     690,     694
    2331,     432,     501,     500,     622
    2332,     582,     586,     585,     650
    2333,     357,     440,     437,     674
    2334,     351,     650,     592,     789
    2335,     623,     625,     702,     703
    2336,     689,     694,     690,     762
    2337,     444,     486,     445,     760
    2338,     689,     761,     758,     762
    2339,     324,     334,     335,     691
    2340,     375,     460,     421,     735
    2341,      49,     651,     896,     898
    2342,     164,     321,     320,     681
    2343,     110,     109,     181,     913
    2344,      36,     128,      93,     862
    2345,      20,     569,     570,     648
    2346,       3,      85,      24,     571
    2347,     421,     460,     733,     735
    2348,     311,     330,     341,     780
    2349,      70,     235,     782,     803
    2350,     242,     229,     258,     799
    2351,     658,     722,     720,     731
    2352,     119,     805,     802,     806
    2353,     460,     733,     735,     838
    2354,     170,     252,     171,     805
    2355,      83,     223,      82,     940
    2356,       3,      65,      85,     566
    2357,     566,     571,     570,     646
    2358,     266,     310,     388,     921
    2359,     573,     577,     690,     692
    2360,     733,     836,     735,     838
    2361,     255,     256,     579,     778
    2362,     122,     775,     595,     921
    2363,     453,     454,     780,     797
    2364,     389,     631,     398,     926
    2365,     696,     697,     873,     894
    2366,      19,       4,      25,     647
    2367,     506,     831,     838,     860
    2368,      18,      19,      64,     568
    2369,     387,     388,     411,     604
    2370,      30,     122,      87,     599
    2371,     453,     578,     407,     797
    2372,     578,     786,     809,     856
    2373,     593,     832,     838,     839
    2374,     596,     602,     785,     797
    2375,     596,     779,     784,     787
    2376,     528,     886,     532,     892
    2377,     223,     784,     798,     940
    2378,       9,     562,     564,     919
    2379,       2,      62,     245,     919
    2380,     733,     829,     826,     836
    2381,      19,     568,     569,     647
    2382,     828,     829,     832,     838
    2383,     330,     778,     579,     780
    2384,      51,     144,     108,     850
    2385,     587,     590,     589,     633
    2386,     101,     103,      46,     716
    2387,     587,     765,     632,     864
    2388,     344,     765,     587,     864
    2389,      52,     145,     107,     920
    2390,     184,     296,     295,     572
    2391,      47,     103,     104,     857
    2392,     192,     681,     825,     942
    2393,      46,     716,     605,     737
    2394,     517,     537,     516,     721
    2395,     487,     583,     486,     584
    2396,     487,     583,     584,     924
    2397,     676,     680,     677,     944
    2398,     777,     799,     809,     813
    2399,      18,      74,     567,     568
    2400,     161,     588,     176,     864
    2401,     828,     832,     834,     839
    2402,     474,     554,     583,     758
    2403,      17,      74,      75,     567
    2404,     474,     583,     689,     758
    2405,      56,     112,     588,     863
    2406,     113,     175,     225,     754
    2407,     275,     376,     380,     725
    2408,       1,     147,     113,     883
    2409,     448,     445,     485,     759
    2410,     511,     514,     539,     730
    2411,     176,     863,     177,     864
    2412,     469,     472,     471,     793
    2413,     489,     474,     583,     689
    2414,     801,     802,     803,     805
    2415,     220,     169,     310,     921
    2416,       1,       5,     147,     883
    2417,     623,     702,     701,     703
    2418,     172,     849,     750,     918
    2419,     169,     311,     310,     594
    2420,     325,     344,     587,     864
    2421,      62,     870,     245,     919
    2422,     583,     692,     689,     694
    2423,     489,     692,     583,     924
    2424,      95,     132,     873,     894
    2425,     669,     751,     670,     753
    2426,     132,     696,     873,     894
    2427,     388,     454,     411,     604
    2428,     886,     889,     887,     890
    2429,     758,     764,     761,     769
    2430,     160,     589,     794,     821
    2431,     147,     234,     175,     754
    2432,     486,     553,     554,     583
    2433,     703,     705,     757,     907
    2434,     332,     469,     470,     795
    2435,     611,     677,     676,     680
    2436,      11,      12,      77,     563
    2437,     364,     431,     636,     904
    2438,     625,     793,     702,     907
    2439,     605,     606,     611,     737
    2440,     665,     904,     905,     906
    2441,     319,     318,     337,     643
    2442,     280,     371,     282,     858
    2443,     289,     360,     318,     654
    2444,     286,     636,     637,     904
    2445,     431,     502,     641,     904
    2446,     430,     505,     683,     905
    2447,     132,      96,      40,     834
    2448,     203,     204,     280,     673
    2449,     393,     407,     453,     578
    2450,     446,     845,     484,     846
    2451,      39,      40,     131,     873
    2452,     403,     530,     625,     907
    2453,     558,     793,     625,     907
    2454,     133,     202,     166,     931
    2455,     484,     555,     634,     845
    2456,     465,     474,     489,     689
    2457,      93,     210,     209,     865
    2458,     276,     317,     375,     734
    2459,     202,     316,     166,     931
    2460,     659,     664,     666,     859
    2461,     132,     834,      40,     873
    2462,     141,     189,     164,     899
    2463,     132,     696,     833,     873
    2464,      39,     873,     131,     941
    2465,      49,     105,     141,     657
    2466,     585,     650,     649,     852
    2467,     419,     515,     514,     728
    2468,      40,      41,     133,     659
    2469,      37,      38,     129,     731
    2470,     340,     312,     743,     891
    2471,      41,      97,     133,     659
    2472,     699,     700,     702,     821
    2473,      94,     131,     835,     941
    2474,     208,     207,     734,     835
    2475,     596,     597,     602,     797
    2476,     345,     759,     448,     766
    2477,      77,      79,     227,     847
    2478,     168,     743,     312,     891
    2479,     116,     172,     173,     708
    2480,     514,     729,     539,     730
    2481,     514,     537,     539,     721
    2482,      52,     108,     109,     920
    2483,     156,     869,     918,     943
    2484,     817,     887,     891,     925
    2485,     243,     247,     628,     701
    2486,     444,     584,     581,     789
    2487,     115,      60,     116,     708
    2488,     123,     817,     891,     925
    2489,     441,     490,     440,     574
    2490,      94,     878,     129,     941
    2491,     186,     297,     183,     650
    2492,     509,     827,     829,     830
    2493,     145,     163,     185,     695
    2494,     221,     123,     891,     925
    2495,      51,     107,     143,     850
    2496,     398,     631,     598,     926
    2497,      38,      95,      39,     941
    2498,     207,     166,     317,     734
    2499,     519,     738,     747,     748
    2500,     733,     734,     735,     836
    2501,     691,     761,     762,     770
    2502,     299,     349,     300,     914
    2503,     585,     655,     656,     855
    2504,     389,     891,     630,     926
    2505,     317,     375,     734,     735
    2506,     128,     843,     210,     862
    2507,     111,     150,     178,     627
    2508,     322,     335,     352,     690
    2509,     239,     265,     598,     926
    2510,     244,     301,     178,     791
    2511,     317,     338,     735,     839
    2512,      55,      56,     111,     866
    2513,     241,     248,     256,     809
    2514,     447,     483,     770,     846
    2515,      57,      56,     151,     840
    2516,      21,     570,     119,     802
    2517,     235,     252,     254,     804
    2518,     459,     838,     735,     839
    2519,     119,     802,     570,     806
    2520,     248,     399,     400,     856
    2521,     733,     734,     836,     837
    2522,     276,     734,     376,     837
    2523,     376,     375,     421,     734
    2524,     252,     778,     804,     805
    2525,     221,     891,     313,     926
    2526,     600,     604,     601,     888
    2527,      78,     566,     567,     939
    2528,     256,     400,     393,     578
    2529,      74,     567,     568,     939
    2530,      64,      74,     568,     800
    2531,     566,     646,     568,     939
    2532,      15,      78,     566,     567
    2533,      18,      74,      17,     567
    2534,     232,     255,     309,     778
    2535,     208,     207,     276,     734
    2536,     220,     266,     601,     921
    2537,     139,     193,     165,     737
    2538,      83,     222,     223,     940
    2539,      23,     120,      22,     571
    2540,     207,     166,     734,     835
    2541,     709,     755,     900,     933
    2542,     828,     835,     836,     839
    2543,     497,     498,     612,     841
    2544,     196,     688,     637,     922
    2545,      11,     564,     563,     671
    2546,     106,     187,     186,     651
    2547,      96,      98,     659,     661
    2548,     829,     831,     832,     838
    2549,       2,     245,       9,     919
    2550,     138,      45,      44,     922
    2551,     828,     834,     835,     839
    2552,     606,     811,     654,     825
    2553,     177,     767,     180,     771
    2554,     326,     333,     332,     633
    2555,     304,     765,     344,     864
    2556,      54,     767,     768,     937
    2557,     623,     625,     624,     702
    2558,     472,     481,     555,     629
    2559,     703,     712,     705,     923
    2560,     463,     475,     464,     680
    2561,     102,     192,     193,     942
    2562,      46,     102,     139,     737
    2563,     164,     321,     681,     682
    2564,     764,     768,     767,     937
    2565,     530,     555,     484,     845
    2566,     480,     471,     531,     793
    2567,     208,     276,     275,     837
    2568,     494,     550,     475,     944
    2569,     332,     633,     469,     795
    2570,     480,     558,     527,     907
    2571,     358,     436,     438,     916
    2572,     510,     540,     874,     945
    2573,     166,     317,     734,     839
    2574,     587,     589,     624,     633
    2575,     110,     180,     767,     937
    2576,      54,     110,     767,     937
    2577,     386,     746,     816,     875
    2578,     418,     792,     718,     822
    2579,      98,     200,     667,     668
    2580,     509,     508,     830,     831
    2581,     506,     543,     542,     831
    2582,     231,     255,     232,     807
    2583,     706,     711,     709,     756
    2584,     659,     662,     661,     666
    2585,      29,     122,      30,     775
    2586,     835,     872,     878,     941
    2587,     479,     533,     526,     890
    2588,      40,      96,      41,     659
    2589,     103,     191,     104,     897
    2590,     738,     745,     748,     935
    2591,      95,     872,     873,     941
    2592,     132,     205,     204,     696
    2593,     205,     278,     279,     696
    2594,     566,     569,     568,     646
    2595,      25,     645,      81,     647
    2596,     390,     714,     711,     901
    2597,     121,     233,     169,     595
    2598,     391,     706,     711,     712
    2599,     391,     711,     706,     756
    2600,     131,     873,     835,     941
    2601,      95,     873,     872,     894
    2602,     511,     539,     540,     945
    2603,     305,     711,     390,     756
    2604,      94,      39,     131,     941
    2605,     358,     438,     355,     915
    2606,     739,     741,     745,     938
    2607,     457,     516,     478,     884
    2608,      65,     799,     807,     808
    2609,      38,     872,      95,     941
    2610,     269,     384,     383,     740
    2611,      90,     214,      91,     842
    2612,     314,     740,     741,     927
    2613,     244,     627,     628,     791
    2614,     302,     791,     770,     810
    2615,     472,     629,     531,     793
    2616,     131,     834,     835,     873
    2617,     307,     402,     701,     703
    2618,     719,     726,     720,     730
    2619,      57,     589,     699,     840
    2620,     151,     161,     152,     589
    2621,     387,     412,     386,     875
    2622,      89,     126,     215,     927
    2623,     405,     404,     785,     892
    2624,     266,     387,     601,     604
    2625,     738,     823,     747,     879
    2626,     404,     602,     785,     892
    2627,     747,     822,     842,     879
    2628,     518,     536,     538,     823
    2629,     421,     512,     513,     724
    2630,     741,     743,     742,     745
    2631,     447,     770,     790,     846
    2632,     624,     699,     702,     821
    2633,     128,     772,     843,     862
    2634,     256,     578,     579,     778
    2635,     274,     378,     377,     718
    2636,     255,     453,     330,     579
    2637,     121,     233,     595,     781
    2638,     252,     778,     254,     804
    2639,     407,     529,     525,     797
    2640,     600,     602,     604,     889
    2641,     285,     282,     368,     668
    2642,     365,     368,     430,     905
    2643,     528,     532,     602,     892
    2644,     401,     623,     446,     790
    2645,     467,     689,     691,     761
    2646,     286,     285,     365,     906
    2647,      65,     799,     241,     807
    2648,     529,     532,     525,     602
    2649,     467,     691,     466,     761
    2650,     372,     424,     425,     698
    2651,     464,     616,     617,     680
    2652,     433,     500,     499,     622
    2653,     305,     390,     262,     756
    2654,     473,     758,     761,     769
    2655,     314,     339,     384,     740
    2656,     147,       5,      71,     883
    2657,     483,     473,     761,     769
    2658,     344,     587,     765,     766
    2659,     338,     459,     460,     735
    2660,     330,     453,     341,     780
    2661,     404,     528,     602,     892
    2662,     328,     331,     396,     909
    2663,      59,     796,     710,     820
    2664,     406,     470,     471,     715
    2665,     343,     451,     390,     901
    2666,      46,     737,     857,     942
    2667,     744,     890,     876,     935
    2668,     310,     341,     388,     594
    2669,     157,     869,     156,     943
    2670,     333,     468,     469,     633
    2671,     410,     631,     886,     892
    2672,      88,     218,     217,     814
    2673,      75,     230,     229,     939
    2674,     140,     899,     164,     942
    2675,     473,     474,     689,     758
    2676,     737,     825,     857,     942
    2677,     124,     219,     218,     815
    2678,      88,     217,      90,     814
    2679,     681,     857,     825,     942
    2680,     192,     825,     193,     942
    2681,      32,     123,      31,     925
    2682,     193,     825,     737,     942
    2683,     613,     618,     614,     619
    2684,     424,     510,     509,     827
    2685,     477,     829,     733,     838
    2686,     762,     770,     763,     810
    2687,     267,     386,     268,     816
    2688,     744,     817,     816,     887
    2689,      46,      47,     102,     942
    2690,      47,     857,     140,     942
    2691,      33,      89,     125,     882
    2692,     580,     592,     582,     789
    2693,     297,     354,     351,     650
    2694,     140,     141,     164,     899
    2695,     577,     690,     694,     695
    2696,     745,     749,     842,     912
    2697,     320,     321,     336,     681
    2698,     298,     581,     650,     789
    2699,     595,     779,     776,     780
    2700,      21,      22,     119,     570
    2701,     297,     294,     354,     649
    2702,     741,     749,     742,     882
    2703,      54,     110,     149,     767
    2704,     298,     350,     581,     789
    2705,     580,     581,     584,     789
    2706,     351,     592,     442,     789
    2707,     415,     413,     748,     877
    2708,     353,     441,     440,     574
    2709,     588,     632,     863,     864
    2710,     354,     442,     351,     592
    2711,     443,     442,     580,     789
    2712,     356,     853,     674,     854
    2713,     481,     468,     449,     587
    2714,     356,     463,     853,     854
    2715,     302,     346,     323,     810
    2716,     437,     674,     493,     854
    2717,     268,     386,     746,     816
    2718,     141,     896,     657,     899
    2719,     467,     466,     473,     761
    2720,     324,     334,     691,     810
    2721,      54,     768,     885,     937
    2722,      65,     566,      78,     799
    2723,     483,     769,     761,     770
    2724,     240,     249,     264,     903
    2725,     239,     265,     249,     598
    2726,     397,     405,     409,     785
    2727,      29,     775,      66,     787
    2728,     249,     398,     397,     903
    2729,     122,     599,     775,     921
    2730,     778,     801,     807,     809
    2731,     598,     631,     600,     926
    2732,     454,     407,     525,     797
    2733,     466,     761,     691,     770
    2734,     235,     254,     233,     776
    2735,      18,      64,      74,     568
    2736,      79,     669,     565,     848
    2737,       9,     137,     562,     870
    2738,     137,     156,     238,     870
    2739,      65,     566,     799,     808
    2740,      61,     156,     918,     943
    2741,     387,     816,     601,     888
    2742,     598,     600,     774,     926
    2743,       9,     870,     562,     919
    2744,     218,     268,     746,     816
    2745,     389,     456,     410,     631
    2746,     560,     565,     563,     753
    2747,     305,     306,     711,     755
    2748,     334,     466,     691,     770
    2749,     744,     875,     876,     890
    2750,     744,     816,     746,     875
    2751,     386,     413,     385,     877
    2752,     525,     604,     602,     889
    2753,      32,     125,     123,     817
    2754,     122,     169,     220,     921
    2755,     354,     439,     442,     592
    2756,     410,     631,     456,     886
    2757,     439,     492,     491,     675
    2758,     124,     773,     817,     925
    2759,     267,     387,     386,     816
    2760,     212,     272,     315,     881
    2761,     414,     520,     455,     739
    2762,     777,     778,     801,     804
    2763,      87,     220,     219,     773
    2764,     740,     879,     741,     927
    2765,     572,     574,     573,     656
    2766,     596,     598,     787,     903
    2767,     205,     278,     696,     894
    2768,     491,     493,     551,     591
    2769,     387,     411,     412,     888
    2770,     400,     578,     809,     856
    2771,      90,     217,     214,     814
    2772,     696,     697,     833,     873
    2773,     132,     696,     204,     833
    2774,     204,     696,     673,     833
    2775,     611,     676,     679,     681
    2776,     201,     653,     635,     859
    2777,     660,     828,     673,     830
    2778,     492,     675,     677,     944
    2779,     242,     799,     258,     809
    2780,     199,     685,     639,     687
    2781,     241,     799,     242,     809
    2782,     504,     544,     507,     871
    2783,     423,     422,     730,     895
    2784,     311,     595,     776,     780
    2785,     338,     316,     369,     839
    2786,     632,     769,     634,     846
    2787,     448,     759,     485,     766
    2788,     371,     425,     427,     672
    2789,     242,     258,     248,     809
    2790,     200,     282,     285,     668
    2791,     241,     256,     807,     809
    2792,     311,     594,     595,     780
    2793,     114,     174,     243,     704
    2794,     248,     400,     809,     856
    2795,     254,     330,     311,     776
    2796,     233,     776,     595,     781
    2797,     328,     819,     331,     909
    2798,     776,     777,     779,     782
    2799,     359,     435,     436,     610
    2800,     235,     254,     776,     804
    2801,     300,     349,     348,     914
    2802,      72,     235,     776,     782
    2803,     206,     277,     278,     717
    2804,     487,     553,     486,     583
    2805,     448,     485,     482,     766
    2806,      49,     142,     106,     898
    2807,     380,     376,     420,     725
    2808,     276,     376,     275,     837
    2809,     256,     400,     578,     809
    2810,     391,     408,     452,     712
    2811,     349,     445,     348,     914
    2812,     158,     819,     328,     909
    2813,     693,     913,     695,     937
    2814,     473,     554,     474,     758
    2815,      55,     149,     112,     863
    2816,     350,     444,     581,     789
    2817,     705,     713,     818,     820
    2818,     158,     154,     159,     819
    2819,      54,     148,     146,     885
    2820,     690,     762,     694,     885
    2821,     777,     809,     786,     813
    2822,     344,     449,     468,     587
    2823,     391,     711,     390,     712
    2824,     228,     260,     172,     750
    2825,     177,     303,     304,     765
    2826,     157,     908,     158,     909
    2827,     331,     819,     902,     909
    2828,     578,     797,     779,     856
    2829,     527,     558,     559,     907
    2830,     337,     462,     461,     643
    2831,      77,     227,     228,     847
    2832,     391,     342,     392,     712
    2833,     395,     902,     900,     909
    2834,     190,     291,     293,     917
    2835,     111,     627,     178,     866
    2836,     151,     588,     589,     840
    2837,     110,     181,     180,     937
    2838,     348,     445,     448,     759
    2839,     395,     331,     902,     909
    2840,     713,     901,     714,     902
    2841,     632,     765,     763,     863
    2842,      55,     768,     767,     863
    2843,     709,     910,     909,     943
    2844,     415,     748,     747,     877
    2845,     202,     201,     281,     859
    2846,     111,      56,     627,     866
    2847,      69,     118,     171,     802
    2848,     346,     334,     323,     810
    2849,     251,     395,     900,     909
    2850,     779,     785,     786,     856
    2851,      26,      27,      82,     645
    2852,     250,     396,     251,     909
    2853,     244,     628,     301,     791
    2854,     560,     562,     561,     753
    2855,     307,     402,     247,     701
    2856,      62,     246,     117,     670
    2857,      68,     867,     753,     868
    2858,     412,     876,     875,     888
    2859,       8,     561,     562,     868
    2860,     632,     790,     770,     846
    2861,     512,     541,     540,     874
    2862,     587,     626,     632,     634
    2863,     473,     557,     554,     758
    2864,     761,     769,     763,     770
    2865,      55,     768,     863,     866
    2866,     512,     477,     541,     829
    2867,     875,     888,     876,     890
    2868,     523,     876,     890,     935
    2869,      39,     132,      40,     873
    2870,     150,     699,     627,     840
    2871,     205,     279,     204,     696
    2872,     132,     204,      96,     833
    2873,     739,     744,     936,     938
    2874,     593,     838,     832,     860
    2875,     413,     522,     748,     876
    2876,     522,     876,     523,     935
    2877,     538,     824,     823,     934
    2878,     751,     756,     752,     849
    2879,     479,     534,     890,     935
    2880,     517,     513,     539,     729
    2881,     594,     597,     604,     921
    2882,     456,     479,     526,     936
    2883,     416,     822,     747,     823
    2884,     338,     460,     375,     735
    2885,     166,     316,     317,     839
    2886,     826,     872,     873,     894
    2887,     697,     893,     826,     894
    2888,     752,     756,     847,     849
    2889,     544,     543,     507,     663
    2890,      79,     847,     669,     848
    2891,     427,     508,     505,     861
    2892,     228,     172,     117,     849
    2893,     541,     477,     542,     829
    2894,     265,     313,     389,     926
    2895,     355,     438,     439,     678
    2896,     669,     751,     752,     849
    2897,     708,     751,     709,     943
    2898,     722,     732,     862,     881
    2899,     239,     249,     240,     598
    2900,      28,      84,     783,     787
    2901,     421,     513,     420,     724
    2902,     521,     536,     535,     738
    2903,     600,     887,     774,     926
    2904,     420,     513,     723,     724
    2905,      30,     599,     774,     775
    2906,     488,     442,     491,     591
    2907,     105,     143,     188,     855
    2908,     596,     602,     597,     603
    2909,     416,     747,     519,     823
    2910,     519,     738,     536,     823
    2911,     597,     601,     604,     921
    2912,     630,     887,     631,     926
    2913,     301,     628,     623,     790
    2914,     380,     420,     417,     723
    2915,     130,     209,     206,     865
    2916,     347,     790,     770,     791
    2917,     422,     514,     511,     730
    2918,     153,     160,     159,     794
    2919,     301,     790,     347,     791
    2920,      29,     595,     122,     775
    2921,     271,     747,     842,     912
    2922,      66,     774,     598,     775
    2923,     632,     770,     791,     866
    2924,     167,     212,     315,     930
    2925,     154,     796,     159,     818
    2926,     157,     250,     869,     910
    2927,     159,     818,     327,     819
    2928,     307,     342,     402,     703
    2929,     296,     322,     352,     573
    2930,     627,     632,     791,     866
    2931,     179,     178,     791,     866
    2932,     443,     488,     487,     580
    2933,     160,     589,     590,     794
    2934,     596,     784,     785,     903
    2935,      29,      28,     595,     787
    2936,     179,     791,     302,     810
    2937,     187,     898,     190,     917
    2938,     493,     490,     551,     591
    2939,     414,     740,     739,     938
    2940,      51,     108,      52,     920
    2941,     488,     491,     551,     591
    2942,     487,     552,     553,     924
    2943,      95,     206,     205,     894
    2944,     157,     158,     250,     909
    2945,      66,     775,     598,     787
    2946,      29,     595,     775,     787
    2947,      60,      61,     116,     708
    2948,     751,     753,     754,     867
    2949,     630,     936,     744,     938
    2950,     383,     340,     743,     938
    2951,     258,     329,     409,     928
    2952,     399,     785,     856,     928
    2953,     329,     785,     409,     928
    2954,     329,     784,     785,     928
    2955,     566,     570,     569,     646
    2956,     645,     777,     801,     803
    2957,     507,     663,     860,     871
    2958,     653,     665,     666,     667
    2959,     111,     179,     148,     768
    2960,      65,     242,     241,     799
    2961,     329,     813,     784,     928
    2962,     111,      56,     150,     627
    2963,     271,     747,     381,     822
    2964,     383,     340,     312,     743
    2965,     341,     453,     454,     780
    2966,      65,      85,     566,     808
    2967,      20,     570,      21,     648
    2968,      69,      20,     118,     648
    2969,      74,     230,      75,     939
    2970,     186,     649,     297,     650
    2971,      71,     560,     753,     883
    2972,     130,     731,     865,     872
    2973,     269,     741,     383,     743
    2974,      71,     560,     561,     753
    2975,     495,     496,     549,     616
    2976,       6,      71,       5,     561
    2977,      49,      48,     142,     896
    2978,      50,     144,     850,     852
    2979,     245,     156,     137,     870
    2980,     347,     446,     447,     790
    2981,       2,     246,      62,     919
    2982,     739,     740,     741,     938
    2983,     179,     178,     302,     791
    2984,      50,     850,     651,     852
    2985,     132,     833,      96,     834
    2986,     259,     263,     329,     813
    2987,     831,     832,     838,     860
    2988,     828,     836,     838,     839
    2989,      19,      25,      81,     647
    2990,     257,     798,     263,     813
    2991,     255,     579,     330,     778
    2992,      83,      84,     222,     783
    2993,     414,     739,     455,     938
    2994,      69,     171,      70,     803
    2995,     776,     778,     777,     804
    2996,     309,     330,     254,     778
    2997,      29,      28,     121,     595
    2998,     376,     420,     725,     837
    2999,     208,     734,     276,     837
    3000,     340,     455,     936,     938
    3001,      38,     130,      95,     872
    3002,     373,     278,     374,     895
    3003,      72,     776,     781,     782
    3004,      70,     171,     235,     803
    3005,      28,      84,      83,     783
    3006,     743,     744,     745,     938
    3007,     744,     748,     876,     877
    3008,      65,      78,     242,     799
    3009,     377,     658,     718,     719
    3010,     372,     373,     424,     698
    3011,      26,      70,      27,     782
    3012,     641,     642,     683,     911
    3013,     423,     422,     511,     730
    3014,     317,     316,     338,     839
    3015,     164,     189,     682,     899
    3016,     400,     399,     404,     856
    3017,     108,     183,     788,     852
    3018,     108,     788,     850,     852
    3019,     106,     651,     186,     852
    3020,     402,     452,     403,     703
    3021,     624,     633,     794,     795
    3022,     530,     625,     558,     845
    3023,      50,     651,     106,     852
    3024,     544,     505,     543,     663
    3025,      63,     243,     244,     699
    3026,     502,     430,     505,     683
    3027,      45,     136,      44,     639
    3028,     585,     651,     850,     852
    3029,     225,     755,     305,     756
    3030,     175,     225,     754,     755
    3031,     681,     899,     857,     942
    3032,     133,     166,     131,     931
    3033,     317,     735,     734,     839
    3034,     320,     336,     361,     681
    3035,     197,     200,     285,     906
    3036,     674,     676,     675,     854
    3037,     751,     755,     752,     756
    3038,     175,     754,     306,     755
    3039,      46,     103,     605,     716
    3040,      45,     716,      46,     737
    3041,     281,     635,     593,     859
    3042,      42,      43,     134,     666
    3043,      96,     204,     203,     833
    3044,     700,     704,     702,     820
    3045,      22,     120,     119,     806
    3046,     158,     159,     328,     819
    3047,     605,     716,     606,     737
    3048,     362,     363,     433,     618
    3049,     138,     195,     101,     736
    3050,     318,     360,     337,     643
    3051,     213,     271,     273,     843
    3052,      72,     233,     121,     781
    3053,     738,     823,     879,     934
    3054,     377,     419,     422,     719
    3055,      45,     639,      44,     922
    3056,      47,      48,     140,     896
    3057,     222,     263,     223,     784
    3058,     777,     784,     783,     940
    3059,     379,     380,     417,     880
    3060,     569,     646,     570,     648
    3061,      36,     127,      35,     772
    3062,     103,     194,     605,     716
    3063,      43,     685,     653,     688
    3064,     606,     620,     614,     643
    3065,     504,     544,     871,     911
    3066,     612,     617,     654,     841
    3067,     194,     195,     619,     716
    3068,     161,     589,     588,     590
    3069,     187,     293,     294,     917
    3070,     430,     683,     904,     905
    3071,     545,     641,     683,     911
    3072,     502,     430,     683,     904
    3073,     502,     545,     641,     683
    3074,     544,     505,     663,     683
    3075,     278,     893,     717,     895
    3076,     500,     546,     547,     644
    3077,      46,     737,     605,     857
    3078,     432,     500,     433,     622
    3079,     198,     685,     284,     686
    3080,     387,     604,     411,     888
    3081,     587,     632,     588,     864
    3082,     165,     193,     318,     811
    3083,     373,     698,     697,     895
    3084,     483,     557,     473,     769
    3085,     202,     281,     316,     593
    3086,      97,     201,     202,     859
    3087,     826,     872,     835,     873
    3088,     632,     765,     863,     864
    3089,     517,     721,     723,     729
    3090,      39,      95,     873,     941
    3091,     271,     747,     822,     842
    3092,     717,     893,     730,     895
    3093,     744,     890,     935,     936
    3094,     730,     826,     827,     893
    3095,      55,     111,     148,     768
    3096,     625,     702,     703,     907
    3097,     519,     535,     536,     738
    3098,     478,     538,     536,     934
    3099,     637,     688,     642,     922
    3100,     588,     863,     632,     866
    3101,      33,      34,      89,     749
    3102,     348,     445,     759,     914
    3103,     418,     515,     728,     792
    3104,     478,     521,     458,     934
    3105,     300,     348,     771,     914
    3106,     445,     760,     759,     914
    3107,     417,     517,     516,     723
    3108,     593,     832,     839,     931
    3109,     521,     738,     740,     934
    3110,     293,     355,     294,     915
    3111,     125,     168,     123,     817
    3112,     522,     534,     535,     935
    3113,     378,     418,     718,     822
    3114,     124,      31,      87,     773
    3115,     444,     760,     445,     914
    3116,     383,     455,     340,     938
    3117,     444,     584,     760,     914
    3118,     167,     315,     314,     930
    3119,     384,     458,     414,     740
    3120,     588,     624,     589,     627
    3121,      26,      82,      81,     645
    3122,     702,     704,     705,     820
    3123,     333,     587,     468,     633
    3124,      32,      33,     125,     742
    3125,       2,     564,     246,     919
    3126,     344,     449,     587,     766
    3127,      61,     155,     156,     943
    3128,      72,     235,     233,     776
    3129,     453,     407,     454,     797
    3130,      28,      27,      72,     782
    3131,      27,      83,      82,     940
    3132,     299,     581,     349,     914
    3133,     250,     909,     251,     910
    3134,       2,       9,     564,     919
    3135,     632,     763,     770,     866
    3136,      58,     152,     153,     821
    3137,     112,     177,     176,     863
    3138,     385,     415,     747,     877
    3139,       8,       9,     137,     562
    3140,       2,      10,     246,     564
    3141,     345,     344,     765,     766
    3142,     428,     871,     727,     911
    3143,      68,     236,      71,     867
    3144,      97,     134,     201,     859
    3145,     234,     253,     306,     933
    3146,     472,     468,     481,     587
    3147,     324,     335,     690,     691
    3148,     147,      71,     754,     883
    3149,     159,     160,     327,     794
    3150,     283,     370,     635,     727
    3151,     306,     253,     394,     900
    3152,     370,     428,     426,     871
    3153,     163,     324,     690,     885
    3154,     162,     324,     163,     885
    3155,     663,     683,     665,     684
    3156,     163,     690,     577,     695
    3157,     381,     747,     416,     822
    3158,     429,     727,     812,     911
    3159,     157,     910,     869,     943
    3160,     670,     751,     849,     918
    3161,     495,     496,     616,     677
    3162,       6,      68,      71,     561
    3163,     313,     312,     340,     891
    3164,      87,     122,     220,     599
    3165,     429,     428,     727,     911
    3166,     486,     583,     554,     758
    3167,     486,     583,     758,     760
    3168,     455,     520,     479,     936
    3169,     485,     486,     758,     760
    3170,     513,     540,     539,     945
    3171,     772,     879,     927,     929
    3172,     485,     758,     759,     760
    3173,     487,     488,     552,     924
    3174,     435,     496,     610,     615
    3175,     124,     218,      88,     815
    3176,     125,     216,     168,     882
    3177,     217,     218,     268,     746
    3178,     444,     584,     486,     760
    3179,     270,     385,     382,     912
    3180,     745,     842,     749,     879
    3181,     419,     418,     515,     728
    3182,      49,     657,     141,     896
    3183,     665,     905,     668,     906
    3184,     609,     677,     610,     916
    3185,     134,      99,     198,     653
    3186,     243,     701,     700,     704
    3187,     286,     365,     904,     906
    3188,     200,     667,     668,     906
    3189,     182,     299,     181,     913
    3190,     180,     300,     303,     771
    3191,     197,     667,     200,     906
    3192,     374,     719,     422,     895
    3193,     164,     189,     321,     682
    3194,     349,     581,     444,     914
    3195,     611,     737,     825,     857
    3196,     287,     363,     618,     636
    3197,     717,     730,     719,     895
    3198,     423,     827,     424,     895
    3199,     373,     423,     424,     895
    3200,     373,     424,     698,     895
    3201,     473,     557,     758,     769
    3202,     724,     730,     726,     826
    3203,     461,     503,     640,     644
    3204,     504,     545,     544,     911
    3205,     325,     344,     333,     587
    3206,     370,     367,     428,     727
    3207,      15,      16,      78,     567
    3208,     502,     544,     545,     683
    3209,     303,     348,     345,     771
    3210,     149,     180,     177,     767
    3211,     367,     429,     428,     727
    3212,     639,     685,     642,     687
    3213,     364,     365,     431,     904
    3214,     726,     826,     835,     837
    3215,     100,     197,     196,     688
    3216,     600,     603,     602,     892
    3217,     500,     499,     622,     644
    3218,      30,     599,     773,     774
    3219,      43,     653,     134,     666
    3220,      99,     136,     199,     685
    3221,     524,     888,     889,     890
    3222,     600,     889,     886,     892
    3223,     337,     360,     462,     643
    3224,     358,     438,     915,     916
    3225,     875,     887,     888,     890
    3226,     164,     899,     681,     942
    3227,      47,     104,      48,     896
    3228,     357,     356,     655,     674
    3229,     887,     889,     888,     890
    3230,     361,     336,     464,     617
    3231,     485,     486,     554,     758
    3232,     188,     292,     189,     655
    3233,     495,     492,     677,     944
    3234,     436,     435,     496,     610
    3235,     290,     362,     359,     613
    3236,     606,     614,     621,     643
    3237,     282,     368,     668,     858
    3238,     280,     282,     661,     858
    3239,     280,     672,     371,     858
    3240,     496,     615,     612,     616
    3241,     605,     857,     611,     897
    3242,     660,     830,     672,     861
    3243,     510,     874,     730,     945
    3244,     292,     356,     321,     682
    3245,     360,     434,     462,     654
    3246,     403,     530,     446,     623
    3247,     395,     331,     470,     902
    3248,     660,     672,     661,     858
    3249,     354,     355,     439,     678
    3250,     495,     677,     616,     944
    3251,     308,     342,     307,     923
    3252,     705,     713,     715,     818
    3253,     101,     195,     194,     716
    3254,     308,     392,     342,     923
    3255,     368,     858,     427,     905
    3256,     660,     661,     673,     833
    3257,     129,     208,     211,     878
    3258,     414,     521,     520,     739
    3259,     427,     858,     861,     905
    3260,     271,     822,     273,     843
    3261,     271,     381,     273,     822
    3262,     832,     834,     839,     931
    3263,      47,     140,     857,     896
    3264,     532,     889,     602,     892
    3265,     524,     523,     888,     890
    3266,     498,     548,     612,     616
    3267,     271,     382,     381,     747
    3268,     127,     881,     212,     930
    3269,     457,     478,     458,     884
    3270,     514,     515,     537,     728
    3271,     494,     492,     550,     944
    3272,     387,     601,     604,     888
    3273,     436,     496,     495,     677
    3274,     387,     412,     875,     888
    3275,     411,     604,     525,     889
    3276,     677,     679,     678,     917
    3277,     517,     723,     513,     729
    3278,     826,     827,     828,     829
    3279,     511,     510,     730,     945
    3280,     379,     417,     457,     880
    3281,     115,      60,     708,     710
    3282,     216,     743,     168,     882
    3283,     184,     572,     188,     855
    3284,      89,     215,     216,     882
    3285,     600,     602,     889,     892
    3286,     310,     311,     341,     594
    3287,      69,      70,      26,     803
    3288,     400,     404,     797,     856
    3289,     400,     407,     393,     578
    3290,     533,     889,     886,     890
    3291,     219,     220,     266,     601
    3292,     533,     532,     886,     889
    3293,     258,     786,     809,     813
    3294,     490,     552,     591,     924
    3295,     491,     493,     586,     675
    3296,     424,     827,     698,     895
    3297,     730,     893,     827,     895
    3298,     219,     266,     267,     601
    3299,     213,     128,      91,     842
    3300,     388,     341,     454,     594
    3301,     387,     386,     816,     875
    3302,     397,     398,     405,     903
    3303,     122,     121,     169,     595
    3304,     279,     696,     278,     697
    3305,     213,     273,     210,     843
    3306,     424,     827,     509,     830
    3307,     511,     730,     539,     945
    3308,     227,     261,     260,     750
    3309,      33,     742,     749,     882
    3310,     254,     330,     776,     778
    3311,     513,     539,     729,     945
    3312,      62,     246,     670,     919
    3313,     174,     704,     707,     923
    3314,     512,     513,     724,     945
    3315,     412,     524,     523,     888
    3316,     479,     534,     533,     890
    3317,     411,     524,     888,     889
    3318,     456,     886,     630,     936
    3319,     493,     574,     490,     591
    3320,     226,     225,     262,     756
    3321,     751,     867,     754,     933
    3322,     600,     886,     631,     892
    3323,     539,     730,     729,     945
    3324,     574,     582,     580,     591
    3325,      86,     239,     774,     926
    3326,     389,     340,     630,     891
    3327,     281,     283,     370,     635
    3328,      71,     236,     234,     867
    3329,     246,      76,     117,     670
    3330,     198,     199,     284,     685
    3331,     501,     546,     500,     622
    3332,      66,      30,     774,     775
    3333,      86,     774,      31,     925
    3334,     324,     762,     690,     885
    3335,     598,     774,     599,     775
    3336,     560,     563,     562,     753
    3337,      67,     868,     137,     870
    3338,     512,     724,     733,     945
    3339,       8,     137,      67,     868
    3340,      62,     156,     245,     870
    3341,     135,     197,     100,     667
    3342,     114,     243,     700,     704
    3343,     599,     600,     773,     774
    3344,     774,     887,     925,     926
    3345,     138,     196,     736,     922
    3346,     441,     465,     489,     692
    3347,     487,     486,     444,     584
    3348,      53,     146,     145,     695
    3349,     243,     628,     699,     701
    3350,     244,     628,     627,     699
    3351,     152,     699,     589,     821
    3352,     442,     591,     580,     592
    3353,     582,     650,     585,     788
    3354,     298,     350,     299,     581
    3355,     510,     827,     730,     874
    3356,      57,     699,     150,     840
    3357,      58,     699,     152,     821
    3358,     693,     694,     762,     885
    3359,      58,     700,     699,     821
    3360,     747,     877,     748,     912
    3361,     108,     182,     109,     788
    3362,     724,     826,     726,     837
    3363,     541,     829,     509,     874
    3364,     724,     730,     733,     945
    3365,     230,     799,     798,     813
    3366,     637,     642,     688,     904
    3367,     356,     655,     674,     853
    3368,     510,     509,     827,     874
    3369,     198,     283,     201,     653
    3370,     230,     800,     799,     939
    3371,      41,      42,      97,     666
    3372,     287,     637,     619,     736
    3373,     429,     504,     428,     911
    3374,     509,     830,     829,     831
    3375,     828,     838,     832,     839
    3376,     229,     258,     799,     813
    3377,     509,     829,     542,     831
    3378,     576,     577,     695,     851
    3379,     733,     829,     836,     838
    3380,     334,     467,     335,     691
    3381,     477,     542,     829,     831
    3382,      68,      71,     561,     753
    3383,     709,     711,     713,     900
    3384,     761,     764,     763,     769
    3385,     237,     238,     250,     869
    3386,      13,     565,      14,     848
    3387,     305,     343,     390,     711
    3388,     482,     557,     556,     769
    3389,     472,     633,     629,     793
    3390,     466,     483,     473,     761
    3391,     483,     556,     557,     769
    3392,     763,     764,     766,     769
    3393,     512,     733,     477,     829
    3394,     196,     286,     287,     637
    3395,     512,     829,     541,     874
    3396,     446,     790,     623,     845
    3397,     500,     547,     499,     644
    3398,      45,      46,     139,     737
    3399,     733,     826,     829,     874
    3400,     365,     430,     431,     904
    3401,      60,     155,     708,     908
    3402,     501,     545,     546,     641
    3403,      61,     708,     155,     943
    3404,      61,     918,     708,     943
    3405,     562,     563,     564,     669
    3406,      11,      76,      10,     671
    3407,      13,      79,     565,     848
    3408,     426,     506,     459,     860
    3409,       9,     245,     870,     919
    3410,     750,     849,     751,     918
    3411,     321,     356,     336,     853
    3412,     504,     503,     545,     911
    3413,     642,     812,     727,     911
    3414,     708,     709,     908,     943
    3415,     334,     466,     467,     691
    3416,     545,     503,     546,     640
    3417,       7,      68,       6,     561
    3418,     751,     754,     755,     933
    3419,     113,      80,      14,     848
    3420,     434,     497,     462,     841
    3421,      43,     653,     666,     667
    3422,       8,      67,       7,     868
    3423,     196,     637,     736,     922
    3424,     385,     413,     415,     877
    3425,       5,      71,     560,     561
    3426,     519,     522,     535,     738
    3427,     115,     708,     707,     710
    3428,      53,      54,     885,     937
    3429,     709,     751,     910,     943
    3430,      21,     118,     648,     802
    3431,     378,     381,     418,     822
    3432,     627,     790,     628,     791
    3433,     478,     516,     538,     884
    3434,     210,     273,     274,     843
    3435,     172,     173,     708,     750
    3436,     483,     769,     770,     846
    3437,     467,     474,     465,     689
    3438,     720,     722,     725,     732
    3439,     116,     172,     708,     918
    3440,     211,     275,     272,     725
    3441,     173,     706,     708,     750
    3442,     115,     173,     707,     708
    3443,     172,     750,     708,     918
    3444,     247,     402,     623,     701
    3445,     345,     765,     759,     766
    3446,     503,     476,     546,     644
    3447,     461,     462,     476,     644
    3448,     773,     887,     817,     925
    3449,     432,     622,     618,     636
    3450,      51,     850,     108,     920
    3451,     188,     572,     295,     656
    3452,     529,     528,     532,     602
    3453,     295,     353,     357,     656
    3454,     402,     403,     623,     703
    3455,     462,     497,     476,     621
    3456,     287,     363,     288,     618
    3457,     189,     657,     682,     899
    3458,     196,     287,     195,     736
    3459,     359,     435,     610,     613
    3460,      23,      24,      73,     571
    3461,     436,     610,     677,     916
    3462,     608,     610,     611,     616
    3463,      25,      20,      69,     648
    3464,     626,     634,     629,     845
    3465,     346,     347,     447,     770
    3466,      28,      83,      27,     783
    3467,      28,      72,     121,     781
    3468,     139,     165,     639,     737
    3469,     244,     243,     247,     628
    3470,     345,     448,     449,     766
    3471,     480,     527,     757,     907
    3472,     432,     433,     618,     622
    3473,     301,     401,     347,     790
    3474,     471,     793,     715,     795
    3475,     452,     527,     559,     907
    3476,     165,     687,     639,     811
    3477,      45,     139,     639,     737
    3478,      29,      30,      66,     775
    3479,      15,      65,       3,     566
    3480,     639,     642,     685,     922
    3481,     385,     415,     382,     747
    3482,     382,     415,     416,     747
    3483,     377,     378,     419,     718
    3484,     138,     736,      45,     922
    3485,     292,     655,     356,     682
    3486,     287,     618,     288,     619
    3487,      64,     568,     647,     800
    3488,     231,     241,     256,     807
    3489,      65,     241,      85,     807
    3490,      45,     716,     639,     736
    3491,     619,     620,     716,     736
    3492,     181,     913,     299,     914
    3493,      50,      51,     143,     850
    3494,     676,     854,     680,     944
    3495,     476,     547,     546,     644
    3496,     214,     217,     270,     912
    3497,     362,     433,     613,     618
    3498,     214,     270,     271,     912
    3499,     434,     498,     497,     841
    3500,     183,     650,     788,     852
    3501,     127,     167,     927,     930
    3502,     186,     294,     297,     649
    3503,     186,     649,     650,     852
    3504,     295,     357,     655,     656
    3505,     363,     432,     433,     618
    3506,     145,     695,     851,     920
    3507,     354,     592,     351,     650
    3508,     617,     680,     681,     853
    3509,     191,     290,     291,     607
    3510,     127,     772,     881,     930
    3511,     485,     759,     758,     769
    3512,     167,     314,     927,     930
    3513,     496,     499,     548,     615
    3514,     689,     758,     693,     762
    3515,     586,     656,     652,     674
    3516,     104,     191,     190,     897
    3517,     291,     359,     358,     916
    3518,     212,     881,     315,     930
    3519,     291,     290,     359,     607
    3520,     164,     320,     192,     681
    3521,     165,     318,     319,     811
    3522,     315,     880,     844,     930
    3523,     126,     772,     127,     927
    3524,     192,     289,     193,     825
    3525,     320,     361,     289,     825
    3526,     433,     499,     435,     615
    3527,     844,     879,     927,     930
    3528,      16,      75,      78,     567
    3529,     426,     507,     506,     860
    3530,     288,     363,     362,     618
    3531,     607,     610,     608,     613
    3532,     722,     880,     881,     930
    3533,      96,     203,      98,     661
    3534,      96,      98,      41,     659
    3535,     715,     795,     818,     932
    3536,     470,     715,     902,     932
    3537,     638,     639,     642,     687
    3538,     367,     727,     686,     812
    3539,     283,     284,     367,     686
    3540,     638,     642,     640,     812
    3541,     135,     200,     197,     667
    3542,     705,     715,     793,     795
    3543,     284,     366,     367,     686
    3544,     347,     447,     770,     790
    3545,     481,     482,     556,     634
    3546,     182,     298,     581,     788
    3547,     759,     765,     764,     766
    3548,     161,     325,     326,     590
    3549,     619,     637,     620,     736
    3550,     472,     587,     629,     633
    3551,     157,     238,     156,     869
    3552,     228,     750,     172,     849
    3553,     565,     669,     753,     848
    3554,     184,     185,     296,     572
    3555,     485,     758,     557,     769
    3556,     151,     176,     161,     588
    3557,     157,     250,     238,     869
    3558,     116,     708,      61,     918
    3559,      67,     237,      68,     868
    3560,     709,     910,     751,     933
    3561,      62,     117,      61,     918
    3562,     333,     590,     587,     633
    3563,     626,     627,     632,     790
    3564,       7,      67,      68,     868
    3565,      33,     125,     742,     882
    3566,     188,     656,     655,     855
    3567,      66,     240,      84,     787
    3568,     709,     751,     750,     756
    3569,     180,     181,     300,     771
    3570,     228,     117,     670,     849
    3571,     163,     322,     577,     690
    3572,      48,     104,     142,     896
    3573,     609,     611,     679,     897
    3574,      50,     106,     144,     852
    3575,     581,     913,     693,     914
    3576,     324,     691,     690,     762
    3577,     106,     186,     144,     852
    3578,     518,     538,     515,     792
    3579,     236,     251,     253,     933
    3580,     658,     720,     726,     731
    3581,     638,     640,     643,     812
    3582,     420,     513,     517,     723
    3583,      36,      93,      37,     862
    3584,     480,     757,     715,     793
    3585,     360,     361,     434,     654
    3586,     362,     435,     359,     613
    3587,     705,     715,     714,     757
    3588,     189,     657,     655,     682
    3589,     394,     900,     406,     901
    3590,     470,     795,     715,     932
    3591,     463,     475,     680,     854
    3592,     442,     491,     591,     592
    3593,     152,     161,     160,     589
    3594,     326,     633,     332,     794
    3595,     287,     286,     636,     637
    3596,     485,     557,     482,     769
    3597,     530,     558,     555,     845
    3598,     649,     678,     679,     917
    3599,     103,     194,     191,     605
    3600,     470,     471,     715,     795
    3601,     327,     332,     331,     932
    3602,     160,     326,     327,     794
    3603,     339,     457,     458,     844
    3604,      88,      90,      33,     814
    3605,     516,     537,     538,     721
    3606,     216,     269,     312,     743
    3607,     158,     328,     250,     909
    3608,     395,     470,     406,     902
    3609,     702,     705,     794,     821
    3610,     406,     470,     715,     902
    3611,     739,     745,     744,     938
    3612,     402,     403,     401,     623
    3613,     520,     739,     935,     936
    3614,     269,     383,     312,     743
    3615,     216,     215,     269,     741
    3616,     357,     655,     656,     674
    3617,     188,     655,     189,     657
    3618,     124,      88,      32,     815
    3619,     418,     518,     515,     792
    3620,     533,     534,     523,     890
    3621,     761,     763,     762,     770
    3622,      70,     235,      72,     782
    3623,     383,     740,     414,     938
    3624,     792,     822,     823,     824
    3625,     147,      71,     234,     754
    3626,     459,     593,     838,     839
    3627,     450,     480,     714,     715
    3628,     406,     715,     450,     902
    3629,      67,     137,     238,     870
    3630,     762,     768,     764,     885
    3631,     632,     770,     769,     846
    3632,     348,     759,     771,     914
    3633,     485,     766,     759,     769
    3634,     116,     117,     172,     918
    3635,     175,     305,     225,     755
    3636,     173,     260,     308,     706
    3637,     175,     306,     305,     755
    3638,     117,     849,     172,     918
    3639,     445,     485,     759,     760
    3640,     652,     655,     657,     682
    3641,     236,     237,     251,     910
    3642,     394,     406,     450,     901
    3643,     452,     757,     527,     907
    3644,     327,     819,     818,     932
    3645,     303,     345,     765,     771
    3646,     345,     759,     765,     771
    3647,     168,     312,     313,     891
    3648,     652,     679,     676,     682
    3649,     333,     469,     332,     633
    3650,     266,     388,     387,     604
    3651,     345,     348,     759,     771
    3652,     446,     623,     530,     845
    3653,      30,      31,      86,     774
    3654,     482,     556,     634,     769
    3655,     651,     652,     657,     679
    3656,      60,     154,     155,     908
    3657,     291,     358,     915,     916
    3658,     221,     265,     239,     926
    3659,     292,     295,     357,     655
    3660,     463,     437,     494,     854
    3661,     439,     438,     675,     678
    3662,     389,     340,     456,     630
    3663,     216,     312,     168,     743
    3664,     586,     592,     649,     650
    3665,     358,     359,     436,     916
    3666,     613,     614,     618,     622
    3667,      42,     135,      43,     666
    3668,     679,     681,     682,     899
    3669,     140,     896,     141,     899
    3670,     608,     611,     612,     616
    3671,      98,     666,     661,     668
    3672,     606,     608,     611,     612
    3673,     106,     142,     187,     898
    3674,      98,     661,     203,     668
    3675,     188,     295,     655,     656
    3676,     138,     196,     195,     736
    3677,     194,     288,     290,     607
    3678,     142,     190,     187,     898
    3679,     364,     432,     363,     636
    3680,      46,     605,     103,     857
    3681,       1,     113,      14,     883
    3682,     188,     655,     657,     855
    3683,     234,     236,     253,     933
    3684,     282,     668,     661,     858
    3685,     253,     395,     394,     900
    3686,     203,     661,     282,     668
    3687,      98,     203,     200,     668
    3688,     587,     634,     632,     766
    3689,     632,     863,     763,     866
    3690,     285,     668,     905,     906
    3691,     365,     905,     904,     906
    3692,     661,     666,     662,     668
    3693,     196,     637,     287,     736
    3694,     250,     328,     396,     909
    3695,     606,     612,     617,     654
    3696,     706,     713,     712,     923
    3697,     343,     450,     451,     901
    3698,     251,     900,     253,     933
    3699,     481,     634,     587,     766
    3700,     481,     482,     634,     766
    3701,     482,     634,     766,     769
**
********************************** P R O P E R T I E S ************************
*SOLID SECTION, ELSET=EB1, MATERIAL=Default-Steel
**
*END PART
**
**
**
********************************** E N D   P A R T S **********************************
**
**
********************************** A S S E M B L Y ************************************
**
*ASSEMBLY, NAME=ASSEMBLY1
**
*INSTANCE, NAME=Part-Default_1, PART=Part-Default
*END INSTANCE
**
*END ASSEMBLY
**
**
**
*MATERIAL, NAME = Default-Steel
*ELASTIC, TYPE=ISOTROPIC
2.068000e+05, 2.900000e-01
*DENSITY
7.000000e-06
*CONDUCTIVITY,TYPE=ISO
4.500000e-02
*SPECIFIC HEAT
5.000000e+02
**
**
************************************** H I S T O R Y *************************************
**
*PREPRINT
**
**************************************** S T E P 1 ***************************************
*STEP,INC=100,NAME=Default Set
**
*STATIC
1, 1, 1e-05, 1
**
**
**
**
*END STEP
