*HEADING
cubit(STEPS4ModelRelease/caBurst/mesh/pyramid_1_0.2_112tets.inp): 10/10/2024: 14
version: 2022.4
**
********************************** P A R T S **********************************
*PART, NAME=Part-Default
**
********************************** N O D E S **********************************
*NODE, NSET=ALLNODES
       1,    1.414214e-01,   -1.414214e-01,    5.000000e+00
       2,    1.414214e-01,    1.414214e-01,    5.000000e+00
       3,   -1.414214e-01,    1.414214e-01,    5.000000e+00
       4,   -1.414214e-01,   -1.414214e-01,    5.000000e+00
       5,    7.071068e-01,    7.071068e-01,   -5.000000e+00
       6,    7.071068e-01,   -7.071068e-01,   -5.000000e+00
       7,   -7.071068e-01,   -7.071068e-01,   -5.000000e+00
       8,   -7.071068e-01,    7.071068e-01,   -5.000000e+00
       9,   -1.033233e-01,    2.220446e-16,   -5.000000e+00
      10,   -1.596736e-01,   -1.596736e-01,    4.677342e+00
      11,   -1.833127e-01,   -1.833127e-01,    4.259458e+00
      12,   -2.138984e-01,   -2.138984e-01,    3.718775e+00
      13,   -2.536389e-01,   -2.536389e-01,    3.016256e+00
      14,   -3.052640e-01,   -3.052640e-01,    2.103645e+00
      15,   -3.683568e-01,   -3.683568e-01,    9.883107e-01
      16,   -4.360942e-01,   -4.360942e-01,   -2.091293e-01
      17,   -5.038474e-01,   -5.038474e-01,   -1.406847e+00
      18,   -5.716005e-01,   -5.716005e-01,   -2.604565e+00
      19,   -6.393536e-01,   -6.393536e-01,   -3.802282e+00
      20,    1.596736e-01,   -1.596736e-01,    4.677342e+00
      21,    1.833127e-01,   -1.833127e-01,    4.259458e+00
      22,    2.138984e-01,   -2.138984e-01,    3.718775e+00
      23,    2.536389e-01,   -2.536389e-01,    3.016256e+00
      24,    3.052640e-01,   -3.052640e-01,    2.103645e+00
      25,    3.683568e-01,   -3.683568e-01,    9.883107e-01
      26,    4.360942e-01,   -4.360942e-01,   -2.091293e-01
      27,    5.038474e-01,   -5.038474e-01,   -1.406847e+00
      28,    5.716005e-01,   -5.716005e-01,   -2.604565e+00
      29,    6.393536e-01,   -6.393536e-01,   -3.802282e+00
      30,   -1.596736e-01,    1.596736e-01,    4.677342e+00
      31,   -1.833127e-01,    1.833127e-01,    4.259458e+00
      32,   -2.138984e-01,    2.138984e-01,    3.718775e+00
      33,   -2.536389e-01,    2.536389e-01,    3.016256e+00
      34,   -3.052640e-01,    3.052640e-01,    2.103645e+00
      35,   -3.683568e-01,    3.683568e-01,    9.883107e-01
      36,   -4.360942e-01,    4.360942e-01,   -2.091293e-01
      37,   -5.038474e-01,    5.038474e-01,   -1.406847e+00
      38,   -5.716005e-01,    5.716005e-01,   -2.604565e+00
      39,   -6.393536e-01,    6.393536e-01,   -3.802282e+00
      40,    1.596736e-01,    1.596736e-01,    4.677342e+00
      41,    1.833127e-01,    1.833127e-01,    4.259458e+00
      42,    2.138984e-01,    2.138984e-01,    3.718775e+00
      43,    2.536389e-01,    2.536389e-01,    3.016256e+00
      44,    3.052640e-01,    3.052640e-01,    2.103645e+00
      45,    3.683568e-01,    3.683568e-01,    9.883107e-01
      46,    4.360942e-01,    4.360942e-01,   -2.091293e-01
      47,    5.038474e-01,    5.038474e-01,   -1.406847e+00
      48,    5.716005e-01,    5.716005e-01,   -2.604565e+00
      49,    6.393536e-01,    6.393536e-01,   -3.802282e+00
      50,   -1.022392e-02,   -9.887390e-03,    4.660825e+00
      51,   -1.163116e-02,   -4.505239e-02,   -4.379821e+00
      52,    2.432598e-02,   -1.283458e-02,   -2.059383e+00
      53,    2.243316e-02,   -2.250183e-02,   -3.192207e+00
      54,    2.853743e-02,   -7.158630e-03,    3.784209e-01
      55,    8.628835e-03,   -1.189915e-02,    3.364962e+00
      56,    2.906951e-02,    2.909959e-02,   -8.009422e-01
**
********************************** E L E M E N T S ****************************
*ELEMENT, TYPE=C3D4, ELSET=EB1
       1,       1,      20,       4,      50
       2,      11,      41,      31,      50
       3,       7,       8,      39,      51
       4,      18,      38,      37,      52
       5,      27,      47,      48,      52
       6,      18,      38,      52,      53
       7,      28,      27,      48,      52
       8,       5,      39,       8,      51
       9,       6,       7,      29,      51
      10,       5,       9,       6,      51
      11,       3,       2,       1,      50
      12,       3,       1,       4,      50
      13,      27,      37,      47,      52
      14,       2,      30,      40,      50
      15,      15,      45,      25,      54
      16,      15,      35,      45,      54
      17,      15,      25,      26,      54
      18,      23,      22,      43,      55
      19,      13,      32,      12,      55
      20,      13,      33,      32,      55
      21,      32,      33,      42,      55
      22,      12,      32,      42,      55
      23,      31,      41,      30,      50
      24,      20,      41,      21,      50
      25,       4,      20,      10,      50
      26,       4,      10,      30,      50
      27,       1,      40,      20,      50
      28,      21,      41,      11,      50
      29,      26,      54,      46,      56
      30,      26,      47,      27,      56
      31,      15,      36,      35,      54
      32,      16,      36,      54,      56
      33,      36,      47,      46,      56
      34,      29,      19,      18,      53
      35,       5,      29,      49,      51
      36,      26,      46,      47,      56
      37,      19,      39,      38,      53
      38,      17,      27,      37,      56
      39,       7,      39,      19,      51
      40,      39,      48,      38,      53
      41,      17,      37,      16,      56
      42,      16,      37,      36,      56
      43,      17,      37,      27,      52
      44,      16,      26,      27,      56
      45,      29,      51,      19,      53
      46,       5,       8,       9,      51
      47,      18,      52,      28,      53
      48,      28,      52,      48,      53
      49,      17,      27,      28,      52
      50,      17,      18,      37,      52
      51,      29,      48,      49,      53
      52,      29,      49,      51,      53
      53,       9,       8,       7,      51
      54,      12,      32,      11,      42
      55,      19,      38,      18,      53
      56,      12,      42,      22,      55
      57,      19,      51,      39,      53
      58,      13,      43,      33,      55
      59,      14,      15,      34,      44
      60,      14,      34,      43,      44
      61,      16,      54,      26,      56
      62,      37,      38,      47,      52
      63,       1,       2,      40,      50
      64,      17,      28,      18,      52
      65,      17,      16,      27,      56
      66,      24,      25,      15,      45
      67,       5,      49,      39,      51
      68,      35,      46,      45,      54
      69,      10,      31,      30,      50
      70,      24,      15,      14,      44
      71,      27,      47,      37,      56
      72,       3,       4,      30,      50
      73,      38,      48,      47,      52
      74,      13,      12,      23,      55
      75,      10,      20,      21,      50
      76,       3,      30,       2,      50
      77,      15,      35,      44,      45
      78,      29,      18,      28,      53
      79,      20,      40,      41,      50
      80,      10,      21,      11,      50
      81,       5,       6,      29,      51
      82,       6,       9,       7,      51
      83,      11,      41,      22,      42
      84,      23,      12,      22,      55
      85,      10,      11,      31,      50
      86,      30,      41,      40,      50
      87,      12,      11,      22,      42
      88,      21,      22,      11,      41
      89,      11,      32,      31,      41
      90,      33,      43,      42,      55
      91,      24,      15,      44,      45
      92,      36,      46,      35,      54
      93,      29,      28,      48,      53
      94,      23,      24,      14,      43
      95,      39,      49,      48,      53
      96,      38,      48,      52,      53
      97,      24,      14,      43,      44
      98,      22,      42,      43,      55
      99,      15,      16,      36,      54
     100,      36,      46,      54,      56
     101,      25,      45,      46,      54
     102,      11,      32,      41,      42
     103,      14,      34,      33,      43
     104,      13,      14,      33,      43
     105,      13,      23,      14,      43
     106,      15,      26,      16,      54
     107,      15,      35,      34,      44
     108,      37,      47,      36,      56
     109,      26,      25,      46,      54
     110,      13,      23,      43,      55
     111,      39,      51,      49,      53
     112,       7,      19,      29,      51
**
********************************** P R O P E R T I E S ************************
*SOLID SECTION, ELSET=EB1, MATERIAL=Default-Steel
**
*END PART
**
**
**
********************************** E N D   P A R T S **********************************
**
**
********************************** A S S E M B L Y ************************************
**
*ASSEMBLY, NAME=ASSEMBLY1
**
*INSTANCE, NAME=Part-Default_1, PART=Part-Default
*END INSTANCE
**
*END ASSEMBLY
**
**
**
*MATERIAL, NAME = Default-Steel
*ELASTIC, TYPE=ISOTROPIC
2.068000e+05, 2.900000e-01
*DENSITY
7.000000e-06
*CONDUCTIVITY,TYPE=ISO
4.500000e-02
*SPECIFIC HEAT
5.000000e+02
**
**
************************************** H I S T O R Y *************************************
**
*PREPRINT
**
**************************************** S T E P 1 ***************************************
*STEP,INC=100,NAME=Default Set
**
*STATIC
1, 1, 1e-05, 1
**
**
**
**
*END STEP
